! QResAudit analytic synthetic quarter-wave CPW demo
! Port[1] = input
! Port[2] = output
# HZ S RI R 50
5970000000 0 0 0.99975009996001596 -0.012495001999200318 0.99975009996001596 -0.012495001999200318 0 0
5970050000 0 0 0.99974926520776164 -0.012515845045898397 0.99974926520776164 -0.012515845045898397 0 0
5970100000 0 0 0.99974842626653393 -0.012536757717723088 0.99974842626653393 -0.012536757717723088 0 0
5970150000 0 0 0.99974758310826162 -0.012557740363985158 0.99974758310826162 -0.012557740363985158 0 0
5970200000 0 0 0.99974673570463757 -0.012578793336334984 0.99974673570463757 -0.012578793336334984 0 0
5970250000 0 0 0.99974588402711695 -0.012599916988782192 0.99974588402711695 -0.012599916988782192 0 0
5970300000 0 0 0.99974502804691479 -0.012621111677715451 0.99974502804691479 -0.012621111677715451 0 0
5970350000 0 0 0.9997441677350033 -0.012642377761922494 0.9997441677350033 -0.012642377761922494 0 0
5970400000 0 0 0.99974330306210923 -0.012663715602610322 0.99974330306210923 -0.012663715602610322 0 0
5970450000 0 0 0.99974243399871221 -0.012685125563425628 0.99974243399871221 -0.012685125563425628 0 0
5970500000 0 0 0.99974156051504115 -0.012706608010475415 0.99974156051504115 -0.012706608010475415 0 0
5970550000 0 0 0.99974068258107274 -0.012728163312347831 0.99974068258107274 -0.012728163312347831 0 0
5970600000 0 0 0.99973980016652786 -0.012749791840133223 0.99973980016652786 -0.012749791840133223 0 0
5970650000 0 0 0.99973891324086994 -0.012771493967445383 0.99973891324086994 -0.012771493967445383 0 0
5970700000 0 0 0.99973802177330151 -0.012793270070443032 0.99973802177330151 -0.012793270070443032 0 0
5970750000 0 0 0.99973712573276197 -0.012815120527851529 0.99973712573276197 -0.012815120527851529 0 0
5970800000 0 0 0.99973622508792492 -0.012837045720984762 0.99973622508792492 -0.012837045720984762 0 0
5970850000 0 0 0.99973531980719521 -0.012859046033767311 0.99973531980719521 -0.012859046033767311 0 0
5970900000 0 0 0.9997344098587061 -0.012881121852756826 0.9997344098587061 -0.012881121852756826 0 0
5970950000 0 0 0.99973349521031674 -0.012903273567166612 0.99973349521031674 -0.012903273567166612 0 0
5971000000 0 0 0.99973257582960917 -0.012925501568888467 0.99973257582960917 -0.012925501568888467 0 0
5971050000 0 0 0.99973165168388567 -0.012947806252515766 0.99973165168388567 -0.012947806252515766 0 0
5971100000 0 0 0.99973072274016539 -0.012970188015366757 0.99973072274016539 -0.012970188015366757 0 0
5971150000 0 0 0.99972978896518183 -0.012992647257508113 0.99972978896518183 -0.012992647257508113 0 0
5971200000 0 0 0.99972885032537961 -0.013015184381778741 0.99972885032537961 -0.013015184381778741 0 0
5971250000 0 0 0.9997279067869117 -0.013037799793813811 0.9997279067869117 -0.013037799793813811 0 0
5971300000 0 0 0.99972695831563618 -0.013060493902069049 0.99972695831563618 -0.013060493902069049 0 0
5971350000 0 0 0.99972600487711316 -0.013083267117845302 0.99972600487711316 -0.013083267117845302 0 0
5971400000 0 0 0.99972504643660187 -0.013106119855313325 0.99972504643660187 -0.013106119855313325 0 0
5971450000 0 0 0.99972408295905701 -0.01312905253153885 0.99972408295905701 -0.01312905253153885 0 0
5971500000 0 0 0.9997231144091262 -0.013152065566507918 0.9997231144091262 -0.013152065566507918 0 0
5971550000 0 0 0.99972214075114618 -0.013175159383152469 0.99972214075114618 -0.013175159383152469 0 0
5971600000 0 0 0.99972116194913996 -0.013198334407376194 0.99972116194913996 -0.013198334407376194 0 0
5971650000 0 0 0.99972017796681312 -0.0132215910680807 0.99972017796681312 -0.0132215910680807 0 0
5971700000 0 0 0.99971918876755073 -0.013244929797191888 0.99971918876755073 -0.013244929797191888 0 0
5971750000 0 0 0.99971819431441378 -0.013268351029686664 0.99971819431441378 -0.013268351029686664 0 0
5971800000 0 0 0.99971719457013575 -0.013291855203619911 0.99971719457013575 -0.013291855203619911 0 0
5971850000 0 0 0.99971618949711938 -0.013315442760151746 0.99971618949711938 -0.013315442760151746 0 0
5971900000 0 0 0.99971517905743257 -0.013339114143575069 0.99971517905743257 -0.013339114143575069 0 0
5971950000 0 0 0.99971416321280548 -0.013362869801343432 0.99971416321280548 -0.013362869801343432 0 0
5972000000 0 0 0.99971314192462646 -0.013386710184099138 0.99971314192462646 -0.013386710184099138 0 0
5972050000 0 0 0.99971211515393843 -0.013410635745701718 0.99971211515393843 -0.013410635745701718 0 0
5972100000 0 0 0.99971108286143529 -0.013434646943256674 0.99971108286143529 -0.013434646943256674 0 0
5972150000 0 0 0.9997100450074583 -0.013458744237144524 0.9997100450074583 -0.013458744237144524 0 0
5972200000 0 0 0.99970900155199172 -0.013482928091050181 0.99970900155199172 -0.013482928091050181 0 0
5972250000 0 0 0.9997079524546596 -0.013507198971992641 0.9997079524546596 -0.013507198971992641 0 0
5972300000 0 0 0.99970689767472154 -0.013531557350354979 0.99970689767472154 -0.013531557350354979 0 0
5972350000 0 0 0.99970583717106876 -0.013556003699914691 0.99970583717106876 -0.013556003699914691 0 0
5972400000 0 0 0.9997047709022201 -0.013580538497874349 0.9997047709022201 -0.013580538497874349 0 0
5972450000 0 0 0.99970369882631815 -0.013605162224892589 0.99970369882631815 -0.013605162224892589 0 0
5972500000 0 0 0.99970262090112472 -0.013629875365115448 0.99970262090112472 -0.013629875365115448 0 0
5972550000 0 0 0.99970153708401732 -0.013654678406208029 0.99970153708401732 -0.013654678406208029 0 0
5972600000 0 0 0.99970044733198427 -0.013679571839386517 0.99970044733198427 -0.013679571839386517 0 0
5972650000 0 0 0.99969935160162082 -0.01370455615945055 0.99969935160162082 -0.01370455615945055 0 0
5972700000 0 0 0.99969824984912492 -0.013729631864815933 0.99969824984912492 -0.013729631864815933 0 0
5972750000 0 0 0.99969714203029247 -0.013754799457547727 0.99969714203029247 -0.013754799457547727 0 0
5972800000 0 0 0.99969602810051339 -0.013780059443393677 0.99969602810051339 -0.013780059443393677 0 0
5972850000 0 0 0.99969490801476646 -0.013805412331818045 0.99969490801476646 -0.013805412331818045 0 0
5972900000 0 0 0.99969378172761547 -0.013830858636035767 0.99969378172761547 -0.013830858636035767 0 0
5972950000 0 0 0.99969264919320411 -0.01385639887304704 0.99969264919320411 -0.01385639887304704 0 0
5973000000 0 0 0.99969151036525172 -0.01388203356367226 0.99969151036525172 -0.01388203356367226 0 0
5973050000 0 0 0.99969036519704813 -0.013907763232587345 0.99969036519704813 -0.013907763232587345 0 0
5973100000 0 0 0.99968921364144925 -0.013933588408359461 0.99968921364144925 -0.013933588408359461 0 0
5973150000 0 0 0.99968805565087193 -0.013959509623483171 0.99968805565087193 -0.013959509623483171 0 0
5973200000 0 0 0.99968689117728915 -0.013985527414416922 0.99968689117728915 -0.013985527414416922 0 0
5973250000 0 0 0.99968572017222534 -0.014011642321620006 0.99968572017222534 -0.014011642321620006 0 0
5973300000 0 0 0.99968454258675077 -0.014037854889589906 0.99968454258675077 -0.014037854889589906 0 0
5973350000 0 0 0.99968335837147693 -0.014064165666900044 0.99968335837147693 -0.014064165666900044 0 0
5973400000 0 0 0.99968216747655103 -0.014090575206237993 0.99968216747655103 -0.014090575206237993 0 0
5973450000 0 0 0.999680969851651 -0.014117084064444089 0.999680969851651 -0.014117084064444089 0 0
5973500000 0 0 0.99967976544598003 -0.014143692802550491 0.99967976544598003 -0.014143692802550491 0 0
5973550000 0 0 0.99967855420826113 -0.014170401985820669 0.99967855420826113 -0.014170401985820669 0 0
5973600000 0 0 0.99967733608673204 -0.014197212183789366 0.99967733608673204 -0.014197212183789366 0 0
5973650000 0 0 0.99967611102913922 -0.01422412397030298 0.99967611102913922 -0.01422412397030298 0 0
5973700000 0 0 0.99967487898273244 -0.014251137923560437 0.99967487898273244 -0.014251137923560437 0 0
5973750000 0 0 0.99967363989425928 -0.0142782546261545 0.99967363989425928 -0.0142782546261545 0 0
5973800000 0 0 0.9996723937099592 -0.014305474665113572 0.9996723937099592 -0.014305474665113572 0 0
5973850000 0 0 0.99967114037555771 -0.014332798631943961 0.99967114037555771 -0.014332798631943961 0 0
5973900000 0 0 0.99966987983626043 -0.014360227122672653 0.99966987983626043 -0.014360227122672653 0 0
5973950000 0 0 0.99966861203674728 -0.014387760737890531 0.99966861203674728 -0.014387760737890531 0 0
5974000000 0 0 0.99966733692116627 -0.014415400082796145 0.99966733692116627 -0.014415400082796145 0 0
5974050000 0 0 0.99966605443312739 -0.014443145767239937 0.99966605443312739 -0.014443145767239937 0 0
5974100000 0 0 0.99966476451569652 -0.014470998405769033 0.99966476451569652 -0.014470998405769033 0 0
5974150000 0 0 0.99966346711138865 -0.014498958617672461 0.99966346711138865 -0.014498958617672461 0 0
5974200000 0 0 0.99966216216216219 -0.014527027027027026 0.99966216216216219 -0.014527027027027026 0 0
5974250000 0 0 0.99966084960941182 -0.014555204262743577 0.99966084960941182 -0.014555204262743577 0 0
5974300000 0 0 0.9996595293939623 -0.014583490958613905 0.9996595293939623 -0.014583490958613905 0 0
5974350000 0 0 0.99965820145606177 -0.01461188775335817 0.99965820145606177 -0.01461188775335817 0 0
5974400000 0 0 0.99965686573537482 -0.014640395290672849 0.99965686573537482 -0.014640395290672849 0 0
5974450000 0 0 0.99965552217097586 -0.014669014219279276 0.99965552217097586 -0.014669014219279276 0 0
5974500000 0 0 0.99965417070134177 -0.014697745192972751 0.99965417070134177 -0.014697745192972751 0 0
5974550000 0 0 0.99965281126434569 -0.014726588870672198 0.99965281126434569 -0.014726588870672198 0 0
5974600000 0 0 0.99965144379724868 -0.014755545916470441 0.99965144379724868 -0.014755545916470441 0 0
5974650000 0 0 0.99965006823669389 -0.014784616999685061 0.99965006823669389 -0.014784616999685061 0 0
5974700000 0 0 0.99964868451869782 -0.01481380279490983 0.99964868451869782 -0.01481380279490983 0 0
5974750000 0 0 0.99964729257864393 -0.014843103982066787 0.99964729257864393 -0.014843103982066787 0 0
5974800000 0 0 0.99964589235127477 -0.014872521246458922 0.99964589235127477 -0.014872521246458922 0 0
5974850000 0 0 0.99964448377068416 -0.014902055278823479 0.99964448377068416 -0.014902055278823479 0 0
5974900000 0 0 0.99964306677030945 -0.014931706775385882 0.99964306677030945 -0.014931706775385882 0 0
5974950000 0 0 0.99964164128292421 -0.014961476437914352 0.99964164128292421 -0.014961476437914352 0 0
5975000000 0 0 0.99964020724062941 -0.014991364973775106 0.99964020724062941 -0.014991364973775106 0 0
5975050000 0 0 0.99963876457484602 -0.015021373095988279 0.99963876457484602 -0.015021373095988279 0 0
5975100000 0 0 0.99963731321630644 -0.015051501523284494 0.99963731321630644 -0.015051501523284494 0 0
5975150000 0 0 0.99963585309504643 -0.015081750980162087 0.99963585309504643 -0.015081750980162087 0 0
5975200000 0 0 0.99963438414039651 -0.015112122196945077 0.99963438414039651 -0.015112122196945077 0 0
5975250000 0 0 0.99963290628097357 -0.015142615909841783 0.99963290628097357 -0.015142615909841783 0 0
5975300000 0 0 0.99963141944467193 -0.015173232861004178 0.99963141944467193 -0.015173232861004178 0 0
5975350000 0 0 0.9996299235586551 -0.015203973798587952 0.9996299235586551 -0.015203973798587952 0 0
5975400000 0 0 0.99962841854934603 -0.015234839476813318 0.99962841854934603 -0.015234839476813318 0 0
5975450000 0 0 0.99962690434241885 -0.015265830656026533 0.99962690434241885 -0.015265830656026533 0 0
5975500000 0 0 0.99962538086278951 -0.015296948102762191 0.99962538086278951 -0.015296948102762191 0 0
5975550000 0 0 0.99962384803460602 -0.015328192589806283 0.99962384803460602 -0.015328192589806283 0 0
5975600000 0 0 0.99962230578123956 -0.015359564896259989 0.99962230578123956 -0.015359564896259989 0 0
5975650000 0 0 0.99962075402527462 -0.015391065807604302 0.99962075402527462 -0.015391065807604302 0 0
5975700000 0 0 0.99961919268849964 -0.015422696115765425 0.99961919268849964 -0.015422696115765425 0 0
5975750000 0 0 0.99961762169189661 -0.015454456619180946 0.99961762169189661 -0.015454456619180946 0 0
5975800000 0 0 0.99961604095563139 -0.015486348122866894 0.99961604095563139 -0.015486348122866894 0 0
5975850000 0 0 0.99961445039904384 -0.01551837143848556 0.99961445039904384 -0.01551837143848556 0 0
5975900000 0 0 0.99961284994063704 -0.0155505273844142 0.99961284994063704 -0.0155505273844142 0 0
5975950000 0 0 0.99961123949806696 -0.015582816785814562 0.99961123949806696 -0.015582816785814562 0 0
5976000000 0 0 0.99960961898813239 -0.015615240474703312 0.99960961898813239 -0.015615240474703312 0 0
5976050000 0 0 0.99960798832676356 -0.015647799290023301 0.99960798832676356 -0.015647799290023301 0 0
5976100000 0 0 0.99960634742901133 -0.015680494077715764 0.99960634742901133 -0.015680494077715764 0 0
5976150000 0 0 0.99960469620903669 -0.015713325690793374 0.99960469620903669 -0.015713325690793374 0 0
5976200000 0 0 0.9996030345800988 -0.015746294989414253 0.9996030345800988 -0.015746294989414253 0 0
5976250000 0 0 0.99960136245454423 -0.015779402840956906 0.99960136245454423 -0.015779402840956906 0 0
5976300000 0 0 0.99959967974379504 -0.015812650120096076 0.99959967974379504 -0.015812650120096076 0 0
5976350000 0 0 0.99959798635833708 -0.015846037708879587 0.99959798635833708 -0.015846037708879587 0 0
5976400000 0 0 0.99959628220770835 -0.015879566496806143 0.99959628220770835 -0.015879566496806143 0 0
5976450000 0 0 0.99959456720048656 -0.015913237380904117 0.99959456720048656 -0.015913237380904117 0 0
5976500000 0 0 0.99959284124427716 -0.015947051265811332 0.99959284124427716 -0.015947051265811332 0 0
5976550000 0 0 0.99959110424570097 -0.015981009063855887 0.99959110424570097 -0.015981009063855887 0 0
5976600000 0 0 0.99958935611038102 -0.016015111695137974 0.99958935611038102 -0.016015111695137974 0 0
5976650000 0 0 0.99958759674293074 -0.016049360087612784 0.99958759674293074 -0.016049360087612784 0 0
5976700000 0 0 0.99958582604693968 -0.016083755177174412 0.99958582604693968 -0.016083755177174412 0 0
5976750000 0 0 0.99958404392496147 -0.016118297907740945 0.99958404392496147 -0.016118297907740945 0 0
5976800000 0 0 0.99958225027849978 -0.016152989231340516 0.99958225027849978 -0.016152989231340516 0 0
5976850000 0 0 0.99958044500799481 -0.016187830108198568 0.99958044500799481 -0.016187830108198568 0 0
5976900000 0 0 0.99957862801280972 -0.016222821506826225 0.99957862801280972 -0.016222821506826225 0 0
5976950000 0 0 0.99957679919121623 -0.016257964404109752 0.99957679919121623 -0.016257964404109752 0 0
5977000000 0 0 0.9995749584403808 -0.016293259785401241 0.9995749584403808 -0.016293259785401241 0 0
5977050000 0 0 0.99957310565635005 -0.01632870864461046 0.99957310565635005 -0.01632870864461046 0 0
5977100000 0 0 0.99957124073403592 -0.016364311984297882 0.99957124073403592 -0.016364311984297882 0 0
5977150000 0 0 0.99956936356720083 -0.016400070815768948 0.99956936356720083 -0.016400070815768948 0 0
5977200000 0 0 0.99956747404844293 -0.016435986159169552 0.99956747404844293 -0.016435986159169552 0 0
5977250000 0 0 0.99956557206918029 -0.016472059043582777 0.99956557206918029 -0.016472059043582777 0 0
5977300000 0 0 0.99956365751963538 -0.016508290507126926 0.99956365751963538 -0.016508290507126926 0 0
5977350000 0 0 0.99956173028881978 -0.016544681597054828 0.99956173028881978 -0.016544681597054828 0 0
5977400000 0 0 0.99955979026451713 -0.01658123336985444 0.99955979026451713 -0.01658123336985444 0 0
5977450000 0 0 0.99955783733326786 -0.016617946891350807 0.99955783733326786 -0.016617946891350807 0 0
5977500000 0 0 0.99955587138035173 -0.016654823236809384 0.99955587138035173 -0.016654823236809384 0 0
5977550000 0 0 0.99955389228977176 -0.016691863491040671 0.99955389228977176 -0.016691863491040671 0 0
5977600000 0 0 0.99955189994423643 -0.016729068748506333 0.99955189994423643 -0.016729068748506333 0 0
5977650000 0 0 0.99954989422514295 -0.016766440113426657 0.99954989422514295 -0.016766440113426657 0 0
5977700000 0 0 0.99954787501255904 -0.01680397869988948 0.99954787501255904 -0.01680397869988948 0 0
5977750000 0 0 0.99954584218520559 -0.016841685631960597 0.99954584218520559 -0.016841685631960597 0 0
5977800000 0 0 0.99954379562043794 -0.016879562043795621 0.99954379562043794 -0.016879562043795621 0 0
5977850000 0 0 0.99954173519422795 -0.01691760907975335 0.99954173519422795 -0.01691760907975335 0 0
5977900000 0 0 0.99953966078114453 -0.016955827894510708 0.99953966078114453 -0.016955827894510708 0 0
5977950000 0 0 0.99953757225433526 -0.016994219653179193 0.99953757225433526 -0.016994219653179193 0 0
5978000000 0 0 0.99953546948550664 -0.017032785531422911 0.99953546948550664 -0.017032785531422911 0 0
5978050000 0 0 0.99953335234490448 -0.017071526715578253 0.99953335234490448 -0.017071526715578253 0 0
5978100000 0 0 0.99953122070129385 -0.017110444402775173 0.99953122070129385 -0.017110444402775173 0 0
5978150000 0 0 0.99952907442193883 -0.017149539801060109 0.99952907442193883 -0.017149539801060109 0 0
5978200000 0 0 0.99952691337258204 -0.017188814129520606 0.99952691337258204 -0.017188814129520606 0 0
5978250000 0 0 0.99952473741742309 -0.017228268618411674 0.99952473741742309 -0.017228268618411674 0 0
5978300000 0 0 0.9995225464190981 -0.017267904509283821 0.9995225464190981 -0.017267904509283821 0 0
5978350000 0 0 0.99952034023865743 -0.017307723055112904 0.99952034023865743 -0.017307723055112904 0 0
5978400000 0 0 0.99951811873554353 -0.017347725520431765 0.99951811873554353 -0.017347725520431765 0 0
5978450000 0 0 0.99951588176756945 -0.017387913181463654 0.99951588176756945 -0.017387913181463654 0 0
5978500000 0 0 0.99951362919089515 -0.017428287326257539 0.99951362919089515 -0.017428287326257539 0 0
5978550000 0 0 0.99951136086000492 -0.017468849254825312 0.99951136086000492 -0.017468849254825312 0 0
5978600000 0 0 0.99950907662768373 -0.017509600279280856 0.99950907662768373 -0.017509600279280856 0 0
5978650000 0 0 0.99950677634499352 -0.017550541723981079 0.99950677634499352 -0.017550541723981079 0 0
5978700000 0 0 0.99950445986124881 -0.017591674925668981 0.99950445986124881 -0.017591674925668981 0 0
5978750000 0 0 0.99950212702399199 -0.017633001233618596 0.99950212702399199 -0.017633001233618596 0 0
5978800000 0 0 0.99949977767896847 -0.017674522009782121 0.99949977767896847 -0.017674522009782121 0 0
5978850000 0 0 0.99949741167010098 -0.017716238628939035 0.99949741167010098 -0.017716238628939035 0 0
5978900000 0 0 0.99949502883946406 -0.017758152478847322 0.99949502883946406 -0.017758152478847322 0 0
5978950000 0 0 0.99949262902725711 -0.017800264960396876 0.99949262902725711 -0.017800264960396876 0 0
5979000000 0 0 0.99949021207177813 -0.017842577487765087 0.99949021207177813 -0.017842577487765087 0 0
5979050000 0 0 0.99948777780939646 -0.0178850914885746 0.99948777780939646 -0.0178850914885746 0 0
5979100000 0 0 0.99948532607452478 -0.017927808404053343 0.99948532607452478 -0.017927808404053343 0 0
5979150000 0 0 0.99948285669959147 -0.017970729689196874 0.99948285669959147 -0.017970729689196874 0 0
5979200000 0 0 0.99948036951501151 -0.018013856812933028 0.99948036951501151 -0.018013856812933028 0 0
5979250000 0 0 0.99947786434915786 -0.018057191258288901 0.99947786434915786 -0.018057191258288901 0 0
5979300000 0 0 0.99947534102833158 -0.018100734522560339 0.99947534102833158 -0.018100734522560339 0 0
5979350000 0 0 0.99947279937673172 -0.018144488117483731 0.99947279937673172 -0.018144488117483731 0 0
5979400000 0 0 0.99947023921642497 -0.018188453569410432 0.99947023921642497 -0.018188453569410432 0 0
5979450000 0 0 0.99946766036731438 -0.01823263241948363 0.99946766036731438 -0.01823263241948363 0 0
5979500000 0 0 0.99946506264710777 -0.018277026223817789 0.99946506264710777 -0.018277026223817789 0 0
5979550000 0 0 0.99946244587128563 -0.018321636553680749 0.99946244587128563 -0.018321636553680749 0 0
5979600000 0 0 0.99945980985306826 -0.018366464995678476 0.99945980985306826 -0.018366464995678476 0 0
5979650000 0 0 0.99945715440338256 -0.018411513151942484 0.99945715440338256 -0.018411513151942484 0 0
5979700000 0 0 0.99945447933082798 -0.018456782640320038 0.99945447933082798 -0.018456782640320038 0 0
5979750000 0 0 0.9994517844416424 -0.018502275094567183 0.9994517844416424 -0.018502275094567183 0 0
5979800000 0 0 0.99944906953966695 -0.018547992164544565 0.99944906953966695 -0.018547992164544565 0 0
5979850000 0 0 0.99944633442631015 -0.018593935516416183 0.99944633442631015 -0.018593935516416183 0 0
5979900000 0 0 0.99944357890051194 -0.018640106832851101 0.99944357890051194 -0.018640106832851101 0 0
5979950000 0 0 0.99944080275870639 -0.018686507813228122 0.99944080275870639 -0.018686507813228122 0 0
5980000000 0 0 0.9994380057947847 -0.018733140173843539 0.9994380057947847 -0.018733140173843539 0 0
5980050000 0 0 0.99943518780005647 -0.018780005648121996 0.99943518780005647 -0.018780005648121996 0 0
5980100000 0 0 0.99943234856321117 -0.018827105986830489 0.99943234856321117 -0.018827105986830489 0 0
5980150000 0 0 0.99942948787027819 -0.018874442958295563 0.99942948787027819 -0.018874442958295563 0 0
5980200000 0 0 0.99942660550458717 -0.018922018348623851 0.99942660550458717 -0.018922018348623851 0 0
5980250000 0 0 0.9994237012467263 -0.018969833961925864 0.9994237012467263 -0.018969833961925864 0 0
5980300000 0 0 0.99942077487450121 -0.019017891620543181 0.99942077487450121 -0.019017891620543181 0 0
5980350000 0 0 0.99941782616289221 -0.019066193165279154 0.99941782616289221 -0.019066193165279154 0 0
5980400000 0 0 0.99941485488401127 -0.019114740455632998 0.99941485488401127 -0.019114740455632998 0 0
5980450000 0 0 0.99941186080705768 -0.019163535370037576 0.99941186080705768 -0.019163535370037576 0 0
5980500000 0 0 0.99940884369827387 -0.019212579806100735 0.99940884369827387 -0.019212579806100735 0 0
5980550000 0 0 0.99940580332089923 -0.019261875680850363 0.99940580332089923 -0.019261875680850363 0 0
5980600000 0 0 0.99940273943512425 -0.019311424930983222 0.99940273943512425 -0.019311424930983222 0 0
5980650000 0 0 0.99939965179804291 -0.019361229513117608 0.99939965179804291 -0.019361229513117608 0 0
5980700000 0 0 0.99939654016360469 -0.019411291404049888 0.99939654016360469 -0.019411291404049888 0 0
5980750000 0 0 0.99939340428256573 -0.019461612601015033 0.99939340428256573 -0.019461612601015033 0 0
5980800000 0 0 0.99939024390243902 -0.019512195121951219 0.99939024390243902 -0.019512195121951219 0 0
5980850000 0 0 0.99938705876744327 -0.019563041005768458 0.99938705876744327 -0.019563041005768458 0 0
5980900000 0 0 0.99938384861845164 -0.019614152312621522 0.99938384861845164 -0.019614152312621522 0 0
5980950000 0 0 0.99938061319293903 -0.019665531124187056 0.99938061319293903 -0.019665531124187056 0 0
5981000000 0 0 0.99937735222492807 -0.019717179543945095 0.99937735222492807 -0.019717179543945095 0 0
5981050000 0 0 0.99937406544493512 -0.019769099697464966 0.99937406544493512 -0.019769099697464966 0 0
5981100000 0 0 0.99937075257991437 -0.019821293732695699 0.99937075257991437 -0.019821293732695699 0 0
5981150000 0 0 0.99936741335320123 -0.019873763820261046 0.99936741335320123 -0.019873763820261046 0 0
5981200000 0 0 0.99936404748445451 -0.019926512153759186 0.99936404748445451 -0.019926512153759186 0 0
5981250000 0 0 0.99936065468959789 -0.019979540950067133 0.99936065468959789 -0.019979540950067133 0 0
5981300000 0 0 0.99935723468075988 -0.02003285244965005 0.99935723468075988 -0.02003285244965005 0 0
5981350000 0 0 0.99935378716621315 -0.020086448916875489 0.99935378716621315 -0.020086448916875489 0 0
5981400000 0 0 0.99935031185031187 -0.020140332640332641 0.99935031185031187 -0.020140332640332641 0 0
5981450000 0 0 0.99934680843342893 -0.02019450593315673 0.99934680843342893 -0.02019450593315673 0 0
5981500000 0 0 0.99934327661189104 -0.020248971133358631 0.99934327661189104 -0.020248971133358631 0 0
5981550000 0 0 0.9993397160779135 -0.020303730604159791 0.9993397160779135 -0.020303730604159791 0 0
5981600000 0 0 0.99933612651953263 -0.020358786734332585 0.99933612651953263 -0.020358786734332585 0 0
5981650000 0 0 0.99933250762053805 -0.020414141938546203 0.99933250762053805 -0.020414141938546203 0 0
5981700000 0 0 0.9993288590604027 -0.020469798657718124 0.9993288590604027 -0.020469798657718124 0 0
5981750000 0 0 0.99932518051421249 -0.020525759359371364 0.99932518051421249 -0.020525759359371364 0 0
5981800000 0 0 0.99932147165259344 -0.020582026537997591 0.99932147165259344 -0.020582026537997591 0 0
5981850000 0 0 0.99931773214163877 -0.020638602715426078 0.99931773214163877 -0.020638602715426078 0 0
5981900000 0 0 0.99931396164283315 -0.02069549044119889 0.99931396164283315 -0.02069549044119889 0 0
5981950000 0 0 0.99931015981297666 -0.020752692292952131 0.99931015981297666 -0.020752692292952131 0 0
5982000000 0 0 0.99930632630410654 -0.020810210876803549 0.99930632630410654 -0.020810210876803549 0 0
5982050000 0 0 0.99930246076341789 -0.020868048827746562 0.99930246076341789 -0.020868048827746562 0 0
5982100000 0 0 0.99929856283318264 -0.020926208810050816 0.99929856283318264 -0.020926208810050816 0 0
5982150000 0 0 0.99929463215066661 -0.020984693517669468 0.99929463215066661 -0.020984693517669468 0 0
5982200000 0 0 0.99929066834804536 -0.021043505674653212 0.99929066834804536 -0.021043505674653212 0 0
5982250000 0 0 0.99928667105231872 -0.021102648035571339 0.99928667105231872 -0.021102648035571339 0 0
5982300000 0 0 0.99928263988522237 -0.021162123385939743 0.99928263988522237 -0.021162123385939743 0 0
5982350000 0 0 0.99927857446313917 -0.021221934542656293 0.99927857446313917 -0.021221934542656293 0 0
5982400000 0 0 0.99927447439700756 -0.02128208435444344 0.99927447439700756 -0.02128208435444344 0 0
5982450000 0 0 0.99927033929222908 -0.02134257570229843 0.99927033929222908 -0.02134257570229843 0 0
5982500000 0 0 0.9992661687485731 -0.021403411499951074 0.9992661687485731 -0.021403411499951074 0 0
5982550000 0 0 0.99926196236008036 -0.02146459469432941 0.99926196236008036 -0.02146459469432941 0 0
5982600000 0 0 0.99925771971496435 -0.021526128266033253 0.99925771971496435 -0.021526128266033253 0 0
5982650000 0 0 0.99925344039551067 -0.021588015229815932 0.99925344039551067 -0.021588015229815932 0 0
5982700000 0 0 0.99924912397797427 -0.021650258635074256 0.99924912397797427 -0.021650258635074256 0 0
5982750000 0 0 0.99924477003247492 -0.021712861566346948 0.99924477003247492 -0.021712861566346948 0 0
5982800000 0 0 0.99924037812288991 -0.02177582714382174 0.99924037812288991 -0.02177582714382174 0 0
5982850000 0 0 0.99923594780674574 -0.021839158523851161 0.99923594780674574 -0.021839158523851161 0 0
5982900000 0 0 0.99923147863510609 -0.021902858899477406 0.99923147863510609 -0.021902858899477406 0 0
5982950000 0 0 0.99922697015245865 -0.021966931500966288 0.99922697015245865 -0.021966931500966288 0 0
5983000000 0 0 0.99922242189659938 -0.022031379596350566 0.99922242189659938 -0.022031379596350566 0 0
5983050000 0 0 0.99921783339851389 -0.022096206491982791 0.99921783339851389 -0.022096206491982791 0 0
5983100000 0 0 0.9992132041822569 -0.022161415533097875 0.9992132041822569 -0.022161415533097875 0 0
5983150000 0 0 0.99920853376482899 -0.022227010104385603 0.99920853376482899 -0.022227010104385603 0 0
5983200000 0 0 0.99920382165605093 -0.022292993630573247 0.99920382165605093 -0.022292993630573247 0 0
5983250000 0 0 0.99919906735843511 -0.022359369577018569 0.99919906735843511 -0.022359369577018569 0 0
5983300000 0 0 0.99919427036705466 -0.022426141450313342 0.99919427036705466 -0.022426141450313342 0 0
5983350000 0 0 0.99918943016940909 -0.022493312798897623 0.99918943016940909 -0.022493312798897623 0 0
5983400000 0 0 0.99918454624528852 -0.022560887213685127 0.99918454624528852 -0.022560887213685127 0 0
5983450000 0 0 0.99917961806663325 -0.022628868328699696 0.99917961806663325 -0.022628868328699696 0 0
5983500000 0 0 0.99917464509739184 -0.02269725982172334 0.99917464509739184 -0.02269725982172334 0 0
5983550000 0 0 0.99916962679337551 -0.02276606541495594 0.99916962679337551 -0.02276606541495594 0 0
5983600000 0 0 0.99916456260210906 -0.022835288875686918 0.99916456260210906 -0.022835288875686918 0 0
5983650000 0 0 0.99915945196267963 -0.022904934016979069 0.99915945196267963 -0.022904934016979069 0 0
5983700000 0 0 0.99915429430558167 -0.022975004698364967 0.99915429430558167 -0.022975004698364967 0 0
5983750000 0 0 0.99914908905255795 -0.023045504826555985 0.99914908905255795 -0.023045504826555985 0 0
5983800000 0 0 0.99914383561643838 -0.023116438356164386 0.99914383561643838 -0.023116438356164386 0 0
5983850000 0 0 0.99913853340097436 -0.023187809290438677 0.99913853340097436 -0.023187809290438677 0 0
5983900000 0 0 0.99913318180067034 -0.023259621682012559 0.99913318180067034 -0.023259621682012559 0 0
5983950000 0 0 0.99912778020061055 -0.023331879633667688 0.99912778020061055 -0.023331879633667688 0 0
5984000000 0 0 0.99912232797628331 -0.023404587299110623 0.99912232797628331 -0.023404587299110623 0 0
5984050000 0 0 0.99911682449340067 -0.023477748883764291 0.99911682449340067 -0.023477748883764291 0 0
5984100000 0 0 0.99911126910771419 -0.023551368645574122 0.99911126910771419 -0.023551368645574122 0 0
5984150000 0 0 0.99910566116482669 -0.023625450895829396 0.99910566116482669 -0.023625450895829396 0 0
5984200000 0 0 0.99909999999999999 -0.023700000000000002 0.99909999999999999 -0.023700000000000002 0 0
5984250000 0 0 0.99909428493795849 -0.023775020378588897 0.99909428493795849 -0.023775020378588897 0 0
5984300000 0 0 0.99908851529268783 -0.02385051650800081 0.99908851529268783 -0.02385051650800081 0 0
5984350000 0 0 0.99908269036722963 -0.023926492921427334 0.99908269036722963 -0.023926492921427334 0 0
5984400000 0 0 0.99907680945347122 -0.024002954209748892 0.99907680945347122 -0.024002954209748892 0 0
5984450000 0 0 0.999070871831931 -0.02407990502245393 0.999070871831931 -0.02407990502245393 0 0
5984500000 0 0 0.99906487677153899 -0.024157350068575705 0.99906487677153899 -0.024157350068575705 0 0
5984550000 0 0 0.99905882352941178 -0.02423529411764706 0.99905882352941178 -0.02423529411764706 0 0
5984600000 0 0 0.99905271135062312 -0.024313742000673627 0.99905271135062312 -0.024313742000673627 0 0
5984650000 0 0 0.99904653946796906 -0.024392698611125828 0.99904653946796906 -0.024392698611125828 0 0
5984700000 0 0 0.99904030710172742 -0.024472168905950095 0.99904030710172742 -0.024472168905950095 0 0
5984750000 0 0 0.99903401345941245 -0.024552157906599835 0.99903401345941245 -0.024552157906599835 0 0
5984800000 0 0 0.99902765773552293 -0.024632670700086429 0.99902765773552293 -0.024632670700086429 0 0
5984850000 0 0 0.99902123911128515 -0.024713712440050897 0.99902123911128515 -0.024713712440050897 0 0
5984900000 0 0 0.99901475675438978 -0.024795288347856551 0.99901475675438978 -0.024795288347856551 0 0
5984950000 0 0 0.99900820981872285 -0.024877403713703235 0.99900820981872285 -0.024877403713703235 0 0
5985000000 0 0 0.99900159744408945 -0.024960063897763576 0.99900159744408945 -0.024960063897763576 0 0
5985050000 0 0 0.99899491875593283 -0.025043274331341785 0.99899491875593283 -0.025043274331341785 0 0
5985100000 0 0 0.99898817286504471 -0.025127040518055498 0.99898817286504471 -0.025127040518055498 0 0
5985150000 0 0 0.99898135886727102 -0.025211368035041253 0.99898135886727102 -0.025211368035041253 0 0
5985200000 0 0 0.99897447584320875 -0.025296262534184141 0.99897447584320875 -0.025296262534184141 0 0
5985250000 0 0 0.99896752285789669 -0.025381729743372071 0.99896752285789669 -0.025381729743372071 0 0
5985300000 0 0 0.99896049896049899 -0.025467775467775466 0.99896049896049899 -0.025467775467775466 0 0
5985350000 0 0 0.99895340318398007 -0.025554405591152768 0.99895340318398007 -0.025554405591152768 0 0
5985400000 0 0 0.99894623454477327 -0.025641626077182469 0.99894623454477327 -0.025641626077182469 0 0
5985450000 0 0 0.9989389920424403 -0.025729442970822278 0.9989389920424403 -0.025729442970822278 0 0
5985500000 0 0 0.99893167465932287 -0.025817862399696124 0.99893167465932287 -0.025817862399696124 0 0
5985550000 0 0 0.99892428136018641 -0.025906890575509472 0.99892428136018641 -0.025906890575509472 0 0
5985600000 0 0 0.99891681109185437 -0.02599653379549393 0.99891681109185437 -0.02599653379549393 0 0
5985650000 0 0 0.99890926278283421 -0.026086798443881565 0.99890926278283421 -0.026086798443881565 0 0
5985700000 0 0 0.99890163534293386 -0.026177690993409809 0.99890163534293386 -0.026177690993409809 0 0
5985750000 0 0 0.99889392766286911 -0.02626921800685765 0.99889392766286911 -0.02626921800685765 0 0
5985800000 0 0 0.99888613861386144 -0.026361386138613857 0.99888613861386144 -0.026361386138613857 0 0
5985850000 0 0 0.99887826704722493 -0.026454202136278089 0.99887826704722493 -0.026454202136278089 0 0
5985900000 0 0 0.99887031179394492 -0.026547672842295526 0.99887031179394492 -0.026547672842295526 0 0
5985950000 0 0 0.99886227166424368 -0.026641805195626065 0.99886227166424368 -0.026641805195626065 0 0
5986000000 0 0 0.99885414544713791 -0.026736606233448767 0.99885414544713791 -0.026736606233448767 0 0
5986050000 0 0 0.99884593190998272 -0.026832083092902484 0.99884593190998272 -0.026832083092902484 0 0
5986100000 0 0 0.99883762979800594 -0.026928243012863562 0.99883762979800594 -0.026928243012863562 0 0
5986150000 0 0 0.99882923783382982 -0.027025093335761582 0.99882923783382982 -0.027025093335761582 0 0
5986200000 0 0 0.99882075471698117 -0.02712264150943396 0.99882075471698117 -0.02712264150943396 0 0
5986250000 0 0 0.99881217912338816 -0.027220895089020578 0.99881217912338816 -0.027220895089020578 0 0
5986300000 0 0 0.99880350970486576 -0.027319861738899234 0.99880350970486576 -0.027319861738899234 0 0
5986350000 0 0 0.99879474508858623 -0.027419549234663131 0.99879474508858623 -0.027419549234663131 0 0
5986400000 0 0 0.99878588387653788 -0.027519965465141377 0.99878588387653788 -0.027519965465141377 0 0
5986450000 0 0 0.99877692464496837 -0.027621118434463549 0.99877692464496837 -0.027621118434463549 0 0
5986500000 0 0 0.99876786594381473 -0.027723016264169544 0.99876786594381473 -0.027723016264169544 0 0
5986550000 0 0 0.99875870629611752 -0.027825667195365836 0.99875870629611752 -0.027825667195365836 0 0
5986600000 0 0 0.99874944419742107 -0.027929079590929305 0.99874944419742107 -0.027929079590929305 0 0
5986650000 0 0 0.99874007811515686 -0.02803326193775986 0.99874007811515686 -0.02803326193775986 0 0
5986700000 0 0 0.99873060648801126 -0.028138222849083214 0.99873060648801126 -0.028138222849083214 0 0
5986750000 0 0 0.99872102772527671 -0.028243971066804988 0.99872102772527671 -0.028243971066804988 0 0
5986800000 0 0 0.99871134020618557 -0.028350515463917526 0.99871134020618557 -0.028350515463917526 0 0
5986850000 0 0 0.99870154227922614 -0.028457865046960885 0.99870154227922614 -0.028457865046960885 0 0
5986900000 0 0 0.99869163226144098 -0.028566028958539283 0.99869163226144098 -0.028566028958539283 0 0
5986950000 0 0 0.99868160843770604 -0.028675016479894531 0.99868160843770604 -0.028675016479894531 0 0
5987000000 0 0 0.9986714690599906 -0.028784837033538027 0.9986714690599906 -0.028784837033538027 0 0
5987050000 0 0 0.99866121234659722 -0.028895500185942731 0.99866121234659722 -0.028895500185942731 0 0
5987100000 0 0 0.99865083648138153 -0.029007015650296817 0.99865083648138153 -0.029007015650296817 0 0
5987150000 0 0 0.99864033961294996 -0.029119393289320623 0.99864033961294996 -0.029119393289320623 0 0
5987200000 0 0 0.99862971985383675 -0.029232643118148601 0.99862971985383675 -0.029232643118148601 0 0
5987250000 0 0 0.99861897527965748 -0.029346775307278 0.99861897527965748 -0.029346775307278 0 0
5987300000 0 0 0.99860810392824007 -0.029461800185586143 0.99860810392824007 -0.029461800185586143 0 0
5987350000 0 0 0.99859710379873112 -0.029577728243418078 0.99859710379873112 -0.029577728243418078 0 0
5987400000 0 0 0.99858597285067874 -0.029694570135746605 0.99858597285067874 -0.029694570135746605 0 0
5987450000 0 0 0.99857470900308809 -0.029812336685406601 0.99857470900308809 -0.029812336685406601 0 0
5987500000 0 0 0.99856331013345256 -0.029931038886405727 0.99856331013345256 -0.029931038886405727 0 0
5987550000 0 0 0.99855177407675599 -0.030050687907313543 0.99855177407675599 -0.030050687907313543 0 0
5987600000 0 0 0.99854009862444848 -0.030171295094731376 0.99854009862444848 -0.030171295094731376 0 0
5987650000 0 0 0.99852828152339212 -0.030292871976844962 0.99852828152339212 -0.030292871976844962 0 0
5987700000 0 0 0.99851632047477745 -0.030415430267062317 0.99851632047477745 -0.030415430267062317 0 0
5987750000 0 0 0.99850421313300874 -0.030538981867739203 0.99850421313300874 -0.030538981867739203 0 0
5987800000 0 0 0.99849195710455763 -0.030663538873994638 0.99849195710455763 -0.030663538873994638 0 0
5987850000 0 0 0.99847954994678423 -0.030789113577618973 0.99847954994678423 -0.030789113577618973 0 0
5987900000 0 0 0.9984669891667235 -0.030915718471077193 0.9984669891667235 -0.030915718471077193 0 0
5987950000 0 0 0.99845427221983685 -0.031043366251610131 0.99845427221983685 -0.031043366251610131 0 0
5988000000 0 0 0.99844139650872821 -0.031172069825436407 0.99844139650872821 -0.031172069825436407 0 0
5988050000 0 0 0.9984283593818214 -0.031301842312057973 0.9984283593818214 -0.031301842312057973 0 0
5988100000 0 0 0.99841515813199977 -0.031432697048672256 0.99841515813199977 -0.031432697048672256 0 0
5988150000 0 0 0.99840178999520535 -0.031564647594693941 0.99840178999520535 -0.031564647594693941 0 0
5988200000 0 0 0.99838825214899718 -0.031697707736389684 0.99838825214899718 -0.031697707736389684 0 0
5988250000 0 0 0.99837454171106577 -0.031831891491628891 0.99837454171106577 -0.031831891491628891 0 0
5988300000 0 0 0.99836065573770494 -0.031967213114754096 0.99836065573770494 -0.031967213114754096 0 0
5988350000 0 0 0.99834659122223646 -0.032103687101574407 0.99834659122223646 -0.032103687101574407 0 0
5988400000 0 0 0.99833234509338864 -0.032241328194485622 0.99833234509338864 -0.032241328194485622 0 0
5988450000 0 0 0.99831791421362492 -0.032380151387720775 0.99831791421362492 -0.032380151387720775 0 0
5988500000 0 0 0.99830329537742257 -0.032520171932735084 0.99830329537742257 -0.032520171932735084 0 0
5988550000 0 0 0.99828848530949887 -0.032661405343729202 0.99828848530949887 -0.032661405343729202 0 0
5988600000 0 0 0.99827348066298338 -0.032803867403314917 0.99827348066298338 -0.032803867403314917 0 0
5988650000 0 0 0.99825827801753331 -0.032947574168327748 0.99825827801753331 -0.032947574168327748 0 0
5988700000 0 0 0.99824287387739163 -0.033092541975790701 0.99824287387739163 -0.033092541975790701 0 0
5988750000 0 0 0.99822726466938483 -0.033238787449033858 0.99822726466938483 -0.033238787449033858 0 0
5988800000 0 0 0.99821144674085849 -0.033386327503974564 0.99821144674085849 -0.033386327503974564 0 0
5988850000 0 0 0.99819541635754816 -0.033535179355563133 0.99819541635754816 -0.033535179355563133 0 0
5988900000 0 0 0.99817916970138387 -0.033685360524399126 0.99817916970138387 -0.033685360524399126 0 0
5988950000 0 0 0.99816270286822495 -0.033836888843523524 0.99816270286822495 -0.033836888843523524 0 0
5989000000 0 0 0.9981460118655241 -0.033989782465392221 0.9981460118655241 -0.033989782465392221 0 0
5989050000 0 0 0.99812909260991578 -0.034144059869036486 0.99812909260991578 -0.034144059869036486 0 0
5989100000 0 0 0.99811194092472932 -0.034299739867416294 0.99811194092472932 -0.034299739867416294 0 0
5989150000 0 0 0.99809455253742085 -0.034456841614972589 0.99809455253742085 -0.034456841614972589 0 0
5989200000 0 0 0.99807692307692308 -0.03461538461538461 0.99807692307692308 -0.03461538461538461 0 0
5989250000 0 0 0.99805904807090939 -0.034775388729539135 0.99805904807090939 -0.034775388729539135 0 0
5989300000 0 0 0.99804092294296909 -0.034936874183717895 0.99804092294296909 -0.034936874183717895 0 0
5989350000 0 0 0.99802254300968951 -0.035099861578010677 0.99802254300968951 -0.035099861578010677 0 0
5989400000 0 0 0.99800390347764367 -0.035264371894960955 0.99800390347764367 -0.035264371894960955 0 0
5989450000 0 0 0.99798499944027763 -0.035430426508451809 0.99798499944027763 -0.035430426508451809 0 0
5989500000 0 0 0.99796582587469485 -0.03559804719283971 0.99796582587469485 -0.03559804719283971 0 0
5989550000 0 0 0.99794637763833427 -0.035767256132344549 0.99794637763833427 -0.035767256132344549 0 0
5989600000 0 0 0.99792664946553633 -0.035938075930704021 0.99792664946553633 -0.035938075930704021 0 0
5989650000 0 0 0.99790663596399409 -0.03611052962110111 0.99790663596399409 -0.03611052962110111 0 0
5989700000 0 0 0.99788633161108498 -0.03628464067637388 0.99788633161108498 -0.03628464067637388 0 0
5989750000 0 0 0.99786573075007712 -0.036460433019516708 0.99786573075007712 -0.036460433019516708 0 0
5989800000 0 0 0.99784482758620685 -0.036637931034482756 0.99784482758620685 -0.036637931034482756 0 0
5989850000 0 0 0.99782361618262283 -0.036817159577297892 0.99782361618262283 -0.036817159577297892 0 0
5989900000 0 0 0.99780209045618828 -0.036998143987496346 0.99780209045618828 -0.036998143987496346 0 0
5989950000 0 0 0.99778024417314093 -0.037180910099889011 0.99778024417314093 -0.037180910099889011 0 0
5990000000 0 0 0.99775807094459945 -0.03736548425667597 0.99775807094459945 -0.03736548425667597 0 0
5990050000 0 0 0.99773556422191467 -0.037551893319914459 0.99773556422191467 -0.037551893319914459 0 0
5990100000 0 0 0.99771271729185729 -0.037740164684354982 0.99771271729185729 -0.037740164684354982 0 0
5990150000 0 0 0.99768952327163507 -0.037930326290657963 0.99768952327163507 -0.037930326290657963 0 0
5990200000 0 0 0.99766597510373445 -0.038122406639004153 0.99766597510373445 -0.038122406639004153 0 0
5990250000 0 0 0.99764206555057766 -0.038316434803112476 0.99764206555057766 -0.038316434803112476 0 0
5990300000 0 0 0.99761778718898886 -0.038512440444679719 0.99761778718898886 -0.038512440444679719 0 0
5990350000 0 0 0.99759313240446068 -0.038710453828256629 0.99759313240446068 -0.038710453828256629 0 0
5990400000 0 0 0.99756809338521402 -0.038910505836575876 0.99756809338521402 -0.038910505836575876 0 0
5990450000 0 0 0.99754266211604092 -0.039112627986348125 0.99754266211604092 -0.039112627986348125 0 0
5990500000 0 0 0.99751683037192362 -0.039316852444542541 0.99751683037192362 -0.039316852444542541 0 0
5990550000 0 0 0.9974905897114178 -0.039523212045169391 0.9974905897114178 -0.039523212045169391 0 0
5990600000 0 0 0.99746393146979262 -0.039731740306582504 0.99746393146979262 -0.039731740306582504 0 0
5990650000 0 0 0.99743684675191524 -0.039942471449320761 0.99743684675191524 -0.039942471449320761 0 0
5990700000 0 0 0.99740932642487046 -0.040155440414507769 0.99740932642487046 -0.040155440414507769 0 0
5990750000 0 0 0.99738136111030284 -0.040370682882830466 0.99738136111030284 -0.040370682882830466 0 0
5990800000 0 0 0.99735294117647055 -0.040588235294117647 0.99735294117647055 -0.040588235294117647 0 0
5990850000 0 0 0.99732405672999735 -0.040808134867540813 0.99732405672999735 -0.040808134867540813 0 0
5990900000 0 0 0.99729469760731038 -0.041030419622460026 0.99729469760731038 -0.041030419622460026 0 0
5990950000 0 0 0.99726485336574988 -0.041255128399939223 0.99726485336574988 -0.041255128399939223 0 0
5991000000 0 0 0.99723451327433632 -0.041482300884955754 0.99723451327433632 -0.041482300884955754 0 0
5991050000 0 0 0.997203666304179 -0.041711977629330439 0.997203666304179 -0.041711977629330439 0 0
5991100000 0 0 0.99717230111851196 -0.041944200075405308 0.99717230111851196 -0.041944200075405308 0 0
5991150000 0 0 0.99714040606233911 -0.04217901058049757 0.99714040606233911 -0.04217901058049757 0 0
5991200000 0 0 0.99710796915167099 -0.042416452442159386 0.99710796915167099 -0.042416452442159386 0 0
5991250000 0 0 0.99707497806233547 -0.042656569924274426 0.99707497806233547 -0.042656569924274426 0 0
5991300000 0 0 0.99704142011834318 -0.042899408284023666 0.99704142011834318 -0.042899408284023666 0 0
5991350000 0 0 0.99700728227978586 -0.043145013799753933 0.99700728227978586 -0.043145013799753933 0 0
5991400000 0 0 0.99697255113024763 -0.043393433799784713 0.99697255113024763 -0.043393433799784713 0 0
5991450000 0 0 0.99693721286370596 -0.043644716692189889 0.99693721286370596 -0.043644716692189889 0 0
5991500000 0 0 0.99690125327089929 -0.043898911995592899 0.99690125327089929 -0.043898911995592899 0 0
5991550000 0 0 0.99686465772513499 -0.044156070371015502 0.99686465772513499 -0.044156070371015502 0 0
5991600000 0 0 0.99682741116751272 -0.044416243654822336 0.99682741116751272 -0.044416243654822336 0 0
5991650000 0 0 0.99678949809153494 -0.044679484892804912 0.99678949809153494 -0.044679484892804912 0 0
5991700000 0 0 0.99675090252707577 -0.044945848375451264 0.99675090252707577 -0.044945848375451264 0 0
5991750000 0 0 0.99671160802367642 -0.0452153896744492 0.99671160802367642 -0.0452153896744492 0 0
5991800000 0 0 0.99667159763313606 -0.045488165680473383 0.99667159763313606 -0.045488165680473383 0 0
5991850000 0 0 0.99663085389136374 -0.045764234642308992 0.99663085389136374 -0.045764234642308992 0 0
5991900000 0 0 0.99658935879945432 -0.04604365620736698 0.99658935879945432 -0.04604365620736698 0 0
5991950000 0 0 0.99654709380395168 -0.046326491463648568 0.99654709380395168 -0.046326491463648568 0 0
5992000000 0 0 0.99650403977625857 -0.046612802983219397 0.99650403977625857 -0.046612802983219397 0 0
5992050000 0 0 0.99646017699115041 -0.04690265486725663 0.99646017699115041 -0.04690265486725663 0 0
5992100000 0 0 0.99641548510434919 -0.04719611279273539 0.99641548510434919 -0.04719611279273539 0 0
5992150000 0 0 0.99636994312910898 -0.047493244060823614 0.99636994312910898 -0.047493244060823614 0 0
5992200000 0 0 0.99632352941176472 -0.047794117647058827 0.99632352941176472 -0.047794117647058827 0 0
5992250000 0 0 0.99627622160618978 -0.048098804253382428 0.99627622160618978 -0.048098804253382428 0 0
5992300000 0 0 0.99622799664710815 -0.048407376362112314 0.99622799664710815 -0.048407376362112314 0 0
5992350000 0 0 0.99617883072220104 -0.048719908291937335 0.99617883072220104 -0.048719908291937335 0 0
5992400000 0 0 0.99612869924294567 -0.049036476256022025 0.99612869924294567 -0.049036476256022025 0 0
5992450000 0 0 0.99607757681412068 -0.04935715842231423 0.99607757681412068 -0.04935715842231423 0 0
5992500000 0 0 0.99602543720190784 -0.049682034976152624 0.99602543720190784 -0.049682034976152624 0 0
5992550000 0 0 0.99597225330051464 -0.050011188185276348 0.99597225330051464 -0.050011188185276348 0 0
5992600000 0 0 0.99591799709724238 -0.050344702467343974 0.99591799709724238 -0.050344702467343974 0 0
5992650000 0 0 0.99586263963591226 -0.050682664460074474 0.99586263963591226 -0.050682664460074474 0 0
5992700000 0 0 0.99580615097856473 -0.051025163094128613 0.99580615097856473 -0.051025163094128613 0 0
5992750000 0 0 0.99574850016533611 -0.051372289668855403 0.99574850016533611 -0.051372289668855403 0 0
5992800000 0 0 0.99568965517241381 -0.051724137931034482 0.99568965517241381 -0.051724137931034482 0 0
5992850000 0 0 0.99562958286796488 -0.0520808041567523 0.99562958286796488 -0.0520808041567523 0 0
5992900000 0 0 0.99556824896592477 -0.052442387236557017 0.99556824896592477 -0.052442387236557017 0 0
5992950000 0 0 0.99550561797752812 -0.05280898876404494 0.99550561797752812 -0.05280898876404494 0 0
5993000000 0 0 0.99544165316045385 -0.053180713128038903 0.99544165316045385 -0.053180713128038903 0 0
5993050000 0 0 0.99537631646545077 -0.053557667608528127 0.99537631646545077 -0.053557667608528127 0 0
5993100000 0 0 0.99530956848030017 -0.053939962476547837 0.99530956848030017 -0.053939962476547837 0 0
5993150000 0 0 0.99524136837096178 -0.054327711098186432 0.99524136837096178 -0.054327711098186432 0 0
5993200000 0 0 0.99517167381974247 -0.05472103004291845 0.99517167381974247 -0.05472103004291845 0 0
5993250000 0 0 0.99510044096031358 -0.05512003919647232 0.99510044096031358 -0.05512003919647232 0 0
5993300000 0 0 0.99502762430939229 -0.055524861878453041 0.99502762430939229 -0.055524861878453041 0 0
5993350000 0 0 0.99495317669489147 -0.055935624964952614 0.99495317669489147 -0.055935624964952614 0 0
5993400000 0 0 0.99487704918032782 -0.056352459016393436 0.99487704918032782 -0.056352459016393436 0 0
5993450000 0 0 0.99479919098526437 -0.056775498410863913 0.99479919098526437 -0.056775498410863913 0 0
5993500000 0 0 0.99471954940154894 -0.057204881483219901 0.99471954940154894 -0.057204881483219901 0 0
5993550000 0 0 0.99463806970509383 -0.057640750670241291 0.99463806970509383 -0.057640750670241291 0 0
5993600000 0 0 0.99455469506292349 -0.058083252662149081 0.99455469506292349 -0.058083252662149081 0 0
5993650000 0 0 0.99446936643519945 -0.058532538560806244 0.99446936643519945 -0.058532538560806244 0 0
5993700000 0 0 0.9943820224719101 -0.058988764044943826 0.9943820224719101 -0.058988764044943826 0 0
5993750000 0 0 0.9942925994038937 -0.059452089542773798 0.9942925994038937 -0.059452089542773798 0 0
5993800000 0 0 0.99420103092783507 -0.059922680412371129 0.99420103092783507 -0.059922680412371129 0 0
5993850000 0 0 0.99410724808485562 -0.060400707130229818 0.99410724808485562 -0.060400707130229818 0 0
5993900000 0 0 0.99401117913228643 -0.060886345488421617 0.99401117913228643 -0.060886345488421617 0 0
5993950000 0 0 0.99391274940818397 -0.061379776800811622 0.99391274940818397 -0.061379776800811622 0 0
5994000000 0 0 0.99381188118811881 -0.061881188118811881 0.99381188118811881 -0.061881188118811881 0 0
5994050000 0 0 0.99370849353372948 -0.06239077245718281 0.99370849353372948 -0.06239077245718281 0 0
5994100000 0 0 0.99360250213249934 -0.062908729030423646 0.99360250213249934 -0.062908729030423646 0 0
5994150000 0 0 0.99349381912817181 -0.063435263500325315 0.99349381912817181 -0.063435263500325315 0 0
5994200000 0 0 0.99338235294117649 -0.063970588235294112 0.99338235294117649 -0.063970588235294112 0 0
5994250000 0 0 0.99326800807839033 -0.064514922582092904 0.99326800807839033 -0.064514922582092904 0 0
5994300000 0 0 0.99315068493150682 -0.065068493150684928 0.99315068493150682 -0.065068493150684928 0 0
5994350000 0 0 0.99303027956323087 -0.065631534112909479 0.99303027956323087 -0.065631534112909479 0 0
5994400000 0 0 0.99290668348045397 -0.066204287515762919 0.99290668348045397 -0.066204287515762919 0 0
5994450000 0 0 0.99277978339350181 -0.066787003610108295 0.99277978339350181 -0.066787003610108295 0 0
5994500000 0 0 0.99264946096047046 -0.067379941195687687 0.99264946096047046 -0.067379941195687687 0 0
5994550000 0 0 0.99251559251559252 -0.067983367983367987 0.99251559251559252 -0.067983367983367987 0 0
5994600000 0 0 0.99237804878048785 -0.068597560975609762 0.99237804878048785 -0.068597560975609762 0 0
5994650000 0 0 0.99223669455706032 -0.069222806866212377 0.99223669455706032 -0.069222806866212377 0 0
5994700000 0 0 0.99209138840070299 -0.069859402460456937 0.99209138840070299 -0.069859402460456937 0 0
5994750000 0 0 0.99194198227236097 -0.070507655116841261 0.99194198227236097 -0.070507655116841261 0 0
5994800000 0 0 0.99178832116788318 -0.071167883211678842 0.99178832116788318 -0.071167883211678842 0 0
5994850000 0 0 0.99163024272296107 -0.071840416627917791 0.99163024272296107 -0.071840416627917791 0 0
5994900000 0 0 0.99146757679180886 -0.07252559726962457 0.99146757679180886 -0.07252559726962457 0 0
5994950000 0 0 0.99130014499758334 -0.073223779603673281 0.99130014499758334 -0.073223779603673281 0 0
5995000000 0 0 0.99112776025236593 -0.07393533123028391 0.99112776025236593 -0.07393533123028391 0 0
5995050000 0 0 0.99095022624434392 -0.074660633484162894 0.99095022624434392 -0.074660633484162894 0 0
5995100000 0 0 0.99076733688961838 -0.075400082068116533 0.99076733688961838 -0.075400082068116533 0 0
5995150000 0 0 0.99057887574583903 -0.076154087721134717 0.99057887574583903 -0.076154087721134717 0 0
5995200000 0 0 0.99038461538461542 -0.076923076923076927 0.99038461538461542 -0.076923076923076927 0 0
5995250000 0 0 0.99018431671938056 -0.077707492638237535 0.99018431671938056 -0.077707492638237535 0 0
5995300000 0 0 0.98997772828507791 -0.07850779510022271 0.98997772828507791 -0.07850779510022271 0 0
5995350000 0 0 0.98976458546571133 -0.079324462640736948 0.98976458546571133 -0.079324462640736948 0 0
5995400000 0 0 0.98954460966542745 -0.080157992565055763 0.98954460966542745 -0.080157992565055763 0 0
5995450000 0 0 0.98931750741839763 -0.081008902077151335 0.98931750741839763 -0.081008902077151335 0 0
5995500000 0 0 0.98908296943231444 -0.081877729257641918 0.98908296943231444 -0.081877729257641918 0 0
5995550000 0 0 0.98884066955982641 -0.082765034097954118 0.98884066955982641 -0.082765034097954118 0 0
5995600000 0 0 0.98859026369168357 -0.083671399594320489 0.98859026369168357 -0.083671399594320489 0 0
5995650000 0 0 0.98833138856476077 -0.084597432905484243 0.98833138856476077 -0.084597432905484243 0 0
5995700000 0 0 0.98806366047745353 -0.085543766578249331 0.98806366047745353 -0.085543766578249331 0 0
5995750000 0 0 0.98778667390419328 -0.086511059845297861 0.98778667390419328 -0.086511059845297861 0 0
5995800000 0 0 0.98750000000000004 -0.087499999999999994 0.98750000000000004 -0.087499999999999994 0 0
5995850000 0 0 0.98720318498507043 -0.088511303853263182 0.98720318498507043 -0.088511303853263182 0 0
5995900000 0 0 0.98689574839836924 -0.089545719277810132 0.98689574839836924 -0.089545719277810132 0 0
5995950000 0 0 0.98657718120805371 -0.090604026845637592 0.98657718120805371 -0.090604026845637592 0 0
5996000000 0 0 0.98624694376528121 -0.091687041564792168 0.98624694376528121 -0.091687041564792168 0 0
5996050000 0 0 0.98590446358653094 -0.092795614722004705 0.98590446358653094 -0.092795614722004705 0 0
5996100000 0 0 0.98554913294797686 -0.093930635838150284 0.98554913294797686 -0.093930635838150284 0 0
5996150000 0 0 0.98518030627367037 -0.095093034743948618 0.98518030627367037 -0.095093034743948618 0 0
5996200000 0 0 0.98479729729729726 -0.096283783783783786 0.98479729729729726 -0.096283783783783786 0 0
5996250000 0 0 0.98439937597503901 -0.09750390015600624 0.98439937597503901 -0.09750390015600624 0 0
5996300000 0 0 0.98398576512455516 -0.098754448398576514 0.98398576512455516 -0.098754448398576514 0 0
5996350000 0 0 0.98355563676228763 -0.10003654302941714 0.98355563676228763 -0.10003654302941714 0 0
5996400000 0 0 0.98310810810810811 -0.10135135135135134 0.98310810810810811 -0.10135135135135134 0 0
5996450000 0 0 0.98264223722275801 -0.10270009643201543 0.98264223722275801 -0.10270009643201543 0 0
5996500000 0 0 0.98215701823949242 -0.10408406026962727 0.98215701823949242 -0.10408406026962727 0 0
5996550000 0 0 0.98165137614678899 -0.10550458715596331 0.98165137614678899 -0.10550458715596331 0 0
5996600000 0 0 0.9811241610738255 -0.10696308724832213 0.9811241610738255 -0.10696308724832213 0 0
5996650000 0 0 0.98057414202460613 -0.10846104036261603 0.98057414202460613 -0.10846104036261603 0 0
5996700000 0 0 0.97999999999999998 -0.11000000000000001 0.97999999999999998 -0.11000000000000001 0 0
5996750000 0 0 0.97940032043945979 -0.11158159761959258 0.97940032043945979 -0.11158159761959258 0 0
5996800000 0 0 0.97877358490566035 -0.11320754716981132 0.97877358490566035 -0.11320754716981132 0 0
5996850000 0 0 0.97811816192560175 -0.11487964989059081 0.97811816192560175 -0.11487964989059081 0 0
5996900000 0 0 0.97743229689067201 -0.11659979939819458 0.97743229689067201 -0.11659979939819458 0 0
5996950000 0 0 0.97671410090556277 -0.1183699870633894 0.97671410090556277 -0.1183699870633894 0 0
5997000000 0 0 0.97596153846153844 -0.12019230769230768 0.97596153846153844 -0.12019230769230768 0 0
5997050000 0 0 0.97517241379310349 -0.12206896551724136 0.97517241379310349 -0.12206896551724136 0 0
5997100000 0 0 0.97434435575826683 -0.12400228050171039 0.97434435575826683 -0.12400228050171039 0 0
5997150000 0 0 0.97347480106100792 -0.12599469496021221 0.97347480106100792 -0.12599469496021221 0 0
5997200000 0 0 0.97256097560975607 -0.12804878048780488 0.97256097560975607 -0.12804878048780488 0 0
5997250000 0 0 0.97159987377721679 -0.13016724518775641 0.97159987377721679 -0.13016724518775641 0 0
5997300000 0 0 0.97058823529411764 -0.13235294117647059 0.97058823529411764 -0.13235294117647059 0 0
5997350000 0 0 0.96952251947172363 -0.13460887233322044 0.96952251947172363 -0.13460887233322044 0 0
5997400000 0 0 0.9683988764044944 -0.13693820224719103 0.9683988764044944 -0.13693820224719103 0 0
5997450000 0 0 0.96721311475409832 -0.13934426229508196 0.96721311475409832 -0.13934426229508196 0 0
5997500000 0 0 0.9659606656580938 -0.14183055975794248 0.9659606656580938 -0.14183055975794248 0 0
5997550000 0 0 0.96463654223968565 -0.14440078585461691 0.96463654223968565 -0.14440078585461691 0 0
5997600000 0 0 0.96323529411764708 -0.14705882352941177 0.96323529411764708 -0.14705882352941177 0 0
5997650000 0 0 0.9617509562260943 -0.14980875478113048 0.9617509562260943 -0.14980875478113048 0 0
5997700000 0 0 0.96017699115044253 -0.15265486725663716 0.96017699115044253 -0.15265486725663716 0 0
5997750000 0 0 0.95850622406639008 -0.15560165975103735 0.95850622406639008 -0.15560165975103735 0 0
5997800000 0 0 0.95673076923076927 -0.15865384615384615 0.95673076923076927 -0.15865384615384615 0 0
5997850000 0 0 0.95484194681384849 -0.1618163572503763 0.95484194681384849 -0.1618163572503763 0 0
5997900000 0 0 0.95283018867924529 -0.1650943396226415 0.95283018867924529 -0.1650943396226415 0 0
5997950000 0 0 0.9506849315068493 -0.16849315068493154 0.9506849315068493 -0.16849315068493154 0 0
5998000000 0 0 0.94839449541284404 -0.17201834862385323 0.94839449541284404 -0.17201834862385323 0 0
5998050000 0 0 0.94594594594594594 -0.17567567567567569 0.94594594594594594 -0.17567567567567569 0 0
5998100000 0 0 0.94332493702770781 -0.17947103274559195 0.94332493702770781 -0.17947103274559195 0 0
5998150000 0 0 0.94051553205551885 -0.18341044282881691 0.94051553205551885 -0.18341044282881691 0 0
5998200000 0 0 0.9375 -0.1875 0.9375 -0.1875 0 0
5998250000 0 0 0.93425858290723152 -0.19174579985390797 0.93425858290723152 -0.19174579985390797 0 0
5998300000 0 0 0.93076923076923079 -0.19615384615384615 0.93076923076923079 -0.19615384615384615 0 0
5998350000 0 0 0.92700729927007297 -0.20072992700729927 0.92700729927007297 -0.20072992700729927 0 0
5998400000 0 0 0.92294520547945202 -0.20547945205479454 0.92294520547945202 -0.20547945205479454 0 0
5998450000 0 0 0.91855203619909509 -0.2104072398190045 0.91855203619909509 -0.2104072398190045 0 0
5998500000 0 0 0.9137931034482758 -0.21551724137931036 0.9137931034482758 -0.21551724137931036 0 0
5998550000 0 0 0.90862944162436543 -0.22081218274111677 0.90862944162436543 -0.22081218274111677 0 0
5998600000 0 0 0.90301724137931039 -0.22629310344827586 0.90301724137931039 -0.22629310344827586 0 0
5998650000 0 0 0.89690721649484539 -0.23195876288659792 0.89690721649484539 -0.23195876288659792 0 0
5998700000 0 0 0.8902439024390244 -0.23780487804878048 0.8902439024390244 -0.23780487804878048 0 0
5998750000 0 0 0.88296488946684004 -0.24382314694408322 0.88296488946684004 -0.24382314694408322 0 0
5998800000 0 0 0.875 -0.25 0.875 -0.25 0 0
5998850000 0 0 0.86627043090638933 -0.25631500742942048 0.86627043090638933 -0.25631500742942048 0 0
5998900000 0 0 0.85668789808917201 -0.26273885350318471 0.85668789808917201 -0.26273885350318471 0 0
5998950000 0 0 0.84615384615384615 -0.26923076923076927 0.84615384615384615 -0.26923076923076927 0 0
5999000000 0 0 0.8345588235294118 -0.27573529411764708 0.8345588235294118 -0.27573529411764708 0 0
5999050000 0 0 0.82178217821782173 -0.28217821782178221 0.82178217821782173 -0.28217821782178221 0 0
5999100000 0 0 0.80769230769230771 -0.28846153846153849 0.80769230769230771 -0.28846153846153849 0 0
5999150000 0 0 0.79214780600461898 -0.29445727482678985 0.79214780600461898 -0.29445727482678985 0 0
5999200000 0 0 0.77499999999999991 -0.30000000000000004 0.77499999999999991 -0.30000000000000004 0 0
5999250000 0 0 0.75609756097560976 -0.30487804878048785 0.75609756097560976 -0.30487804878048785 0 0
5999300000 0 0 0.73529411764705888 -0.30882352941176472 0.73529411764705888 -0.30882352941176472 0 0
5999350000 0 0 0.71246006389776362 -0.31150159744408945 0.71246006389776362 -0.31150159744408945 0 0
5999400000 0 0 0.6875 -0.3125 0.6875 -0.3125 0 0
5999450000 0 0 0.66037735849056611 -0.31132075471698112 0.66037735849056611 -0.31132075471698112 0 0
5999500000 0 0 0.6311475409836067 -0.30737704918032782 0.6311475409836067 -0.30737704918032782 0 0
5999550000 0 0 0.59999999999999998 -0.29999999999999999 0.59999999999999998 -0.29999999999999999 0 0
5999600000 0 0 0.56730769230769229 -0.28846153846153844 0.56730769230769229 -0.28846153846153844 0 0
5999650000 0 0 0.53367875647668395 -0.27202072538860106 0.53367875647668395 -0.27202072538860106 0 0
5999700000 0 0 0.5 -0.25 0.5 -0.25 0 0
5999750000 0 0 0.4674556213017752 -0.22189349112426035 0.4674556213017752 -0.22189349112426035 0 0
5999800000 0 0 0.4375 -0.18749999999999997 0.4375 -0.18749999999999997 0 0
5999850000 0 0 0.41176470588235292 -0.14705882352941177 0.41176470588235292 -0.14705882352941177 0 0
5999900000 0 0 0.39189189189189189 -0.10135135135135134 0.39189189189189189 -0.10135135135135134 0 0
5999950000 0 0 0.37931034482758619 -0.051724137931034475 0.37931034482758619 -0.051724137931034475 0 0
6000000000 0 0 0.375 0 0.375 0 0 0
6000050000 0 0 0.37931034482758619 0.051724137931034475 0.37931034482758619 0.051724137931034475 0 0
6000100000 0 0 0.39189189189189189 0.10135135135135134 0.39189189189189189 0.10135135135135134 0 0
6000150000 0 0 0.41176470588235292 0.14705882352941177 0.41176470588235292 0.14705882352941177 0 0
6000200000 0 0 0.4375 0.18749999999999997 0.4375 0.18749999999999997 0 0
6000250000 0 0 0.4674556213017752 0.22189349112426035 0.4674556213017752 0.22189349112426035 0 0
6000300000 0 0 0.5 0.25 0.5 0.25 0 0
6000350000 0 0 0.53367875647668395 0.27202072538860106 0.53367875647668395 0.27202072538860106 0 0
6000400000 0 0 0.56730769230769229 0.28846153846153844 0.56730769230769229 0.28846153846153844 0 0
6000450000 0 0 0.59999999999999998 0.29999999999999999 0.59999999999999998 0.29999999999999999 0 0
6000500000 0 0 0.6311475409836067 0.30737704918032782 0.6311475409836067 0.30737704918032782 0 0
6000550000 0 0 0.66037735849056611 0.31132075471698112 0.66037735849056611 0.31132075471698112 0 0
6000600000 0 0 0.6875 0.3125 0.6875 0.3125 0 0
6000650000 0 0 0.71246006389776362 0.31150159744408945 0.71246006389776362 0.31150159744408945 0 0
6000700000 0 0 0.73529411764705888 0.30882352941176472 0.73529411764705888 0.30882352941176472 0 0
6000750000 0 0 0.75609756097560976 0.30487804878048785 0.75609756097560976 0.30487804878048785 0 0
6000800000 0 0 0.77499999999999991 0.30000000000000004 0.77499999999999991 0.30000000000000004 0 0
6000850000 0 0 0.79214780600461898 0.29445727482678985 0.79214780600461898 0.29445727482678985 0 0
6000900000 0 0 0.80769230769230771 0.28846153846153849 0.80769230769230771 0.28846153846153849 0 0
6000950000 0 0 0.82178217821782173 0.28217821782178221 0.82178217821782173 0.28217821782178221 0 0
6001000000 0 0 0.8345588235294118 0.27573529411764708 0.8345588235294118 0.27573529411764708 0 0
6001050000 0 0 0.84615384615384615 0.26923076923076927 0.84615384615384615 0.26923076923076927 0 0
6001100000 0 0 0.85668789808917201 0.26273885350318471 0.85668789808917201 0.26273885350318471 0 0
6001150000 0 0 0.86627043090638933 0.25631500742942048 0.86627043090638933 0.25631500742942048 0 0
6001200000 0 0 0.875 0.25 0.875 0.25 0 0
6001250000 0 0 0.88296488946684004 0.24382314694408322 0.88296488946684004 0.24382314694408322 0 0
6001300000 0 0 0.8902439024390244 0.23780487804878048 0.8902439024390244 0.23780487804878048 0 0
6001350000 0 0 0.89690721649484539 0.23195876288659792 0.89690721649484539 0.23195876288659792 0 0
6001400000 0 0 0.90301724137931039 0.22629310344827586 0.90301724137931039 0.22629310344827586 0 0
6001450000 0 0 0.90862944162436543 0.22081218274111677 0.90862944162436543 0.22081218274111677 0 0
6001500000 0 0 0.9137931034482758 0.21551724137931036 0.9137931034482758 0.21551724137931036 0 0
6001550000 0 0 0.91855203619909509 0.2104072398190045 0.91855203619909509 0.2104072398190045 0 0
6001600000 0 0 0.92294520547945202 0.20547945205479454 0.92294520547945202 0.20547945205479454 0 0
6001650000 0 0 0.92700729927007297 0.20072992700729927 0.92700729927007297 0.20072992700729927 0 0
6001700000 0 0 0.93076923076923079 0.19615384615384615 0.93076923076923079 0.19615384615384615 0 0
6001750000 0 0 0.93425858290723152 0.19174579985390797 0.93425858290723152 0.19174579985390797 0 0
6001800000 0 0 0.9375 0.1875 0.9375 0.1875 0 0
6001850000 0 0 0.94051553205551885 0.18341044282881691 0.94051553205551885 0.18341044282881691 0 0
6001900000 0 0 0.94332493702770781 0.17947103274559195 0.94332493702770781 0.17947103274559195 0 0
6001950000 0 0 0.94594594594594594 0.17567567567567569 0.94594594594594594 0.17567567567567569 0 0
6002000000 0 0 0.94839449541284404 0.17201834862385323 0.94839449541284404 0.17201834862385323 0 0
6002050000 0 0 0.9506849315068493 0.16849315068493154 0.9506849315068493 0.16849315068493154 0 0
6002100000 0 0 0.95283018867924529 0.1650943396226415 0.95283018867924529 0.1650943396226415 0 0
6002150000 0 0 0.95484194681384849 0.1618163572503763 0.95484194681384849 0.1618163572503763 0 0
6002200000 0 0 0.95673076923076927 0.15865384615384615 0.95673076923076927 0.15865384615384615 0 0
6002250000 0 0 0.95850622406639008 0.15560165975103735 0.95850622406639008 0.15560165975103735 0 0
6002300000 0 0 0.96017699115044253 0.15265486725663716 0.96017699115044253 0.15265486725663716 0 0
6002350000 0 0 0.9617509562260943 0.14980875478113048 0.9617509562260943 0.14980875478113048 0 0
6002400000 0 0 0.96323529411764708 0.14705882352941177 0.96323529411764708 0.14705882352941177 0 0
6002450000 0 0 0.96463654223968565 0.14440078585461691 0.96463654223968565 0.14440078585461691 0 0
6002500000 0 0 0.9659606656580938 0.14183055975794248 0.9659606656580938 0.14183055975794248 0 0
6002550000 0 0 0.96721311475409832 0.13934426229508196 0.96721311475409832 0.13934426229508196 0 0
6002600000 0 0 0.9683988764044944 0.13693820224719103 0.9683988764044944 0.13693820224719103 0 0
6002650000 0 0 0.96952251947172363 0.13460887233322044 0.96952251947172363 0.13460887233322044 0 0
6002700000 0 0 0.97058823529411764 0.13235294117647059 0.97058823529411764 0.13235294117647059 0 0
6002750000 0 0 0.97159987377721679 0.13016724518775641 0.97159987377721679 0.13016724518775641 0 0
6002800000 0 0 0.97256097560975607 0.12804878048780488 0.97256097560975607 0.12804878048780488 0 0
6002850000 0 0 0.97347480106100792 0.12599469496021221 0.97347480106100792 0.12599469496021221 0 0
6002900000 0 0 0.97434435575826683 0.12400228050171039 0.97434435575826683 0.12400228050171039 0 0
6002950000 0 0 0.97517241379310349 0.12206896551724136 0.97517241379310349 0.12206896551724136 0 0
6003000000 0 0 0.97596153846153844 0.12019230769230768 0.97596153846153844 0.12019230769230768 0 0
6003050000 0 0 0.97671410090556277 0.1183699870633894 0.97671410090556277 0.1183699870633894 0 0
6003100000 0 0 0.97743229689067201 0.11659979939819458 0.97743229689067201 0.11659979939819458 0 0
6003150000 0 0 0.97811816192560175 0.11487964989059081 0.97811816192560175 0.11487964989059081 0 0
6003200000 0 0 0.97877358490566035 0.11320754716981132 0.97877358490566035 0.11320754716981132 0 0
6003250000 0 0 0.97940032043945979 0.11158159761959258 0.97940032043945979 0.11158159761959258 0 0
6003300000 0 0 0.97999999999999998 0.11000000000000001 0.97999999999999998 0.11000000000000001 0 0
6003350000 0 0 0.98057414202460613 0.10846104036261603 0.98057414202460613 0.10846104036261603 0 0
6003400000 0 0 0.9811241610738255 0.10696308724832213 0.9811241610738255 0.10696308724832213 0 0
6003450000 0 0 0.98165137614678899 0.10550458715596331 0.98165137614678899 0.10550458715596331 0 0
6003500000 0 0 0.98215701823949242 0.10408406026962727 0.98215701823949242 0.10408406026962727 0 0
6003550000 0 0 0.98264223722275801 0.10270009643201543 0.98264223722275801 0.10270009643201543 0 0
6003600000 0 0 0.98310810810810811 0.10135135135135134 0.98310810810810811 0.10135135135135134 0 0
6003650000 0 0 0.98355563676228763 0.10003654302941714 0.98355563676228763 0.10003654302941714 0 0
6003700000 0 0 0.98398576512455516 0.098754448398576514 0.98398576512455516 0.098754448398576514 0 0
6003750000 0 0 0.98439937597503901 0.09750390015600624 0.98439937597503901 0.09750390015600624 0 0
6003800000 0 0 0.98479729729729726 0.096283783783783786 0.98479729729729726 0.096283783783783786 0 0
6003850000 0 0 0.98518030627367037 0.095093034743948618 0.98518030627367037 0.095093034743948618 0 0
6003900000 0 0 0.98554913294797686 0.093930635838150284 0.98554913294797686 0.093930635838150284 0 0
6003950000 0 0 0.98590446358653094 0.092795614722004705 0.98590446358653094 0.092795614722004705 0 0
6004000000 0 0 0.98624694376528121 0.091687041564792168 0.98624694376528121 0.091687041564792168 0 0
6004050000 0 0 0.98657718120805371 0.090604026845637592 0.98657718120805371 0.090604026845637592 0 0
6004100000 0 0 0.98689574839836924 0.089545719277810132 0.98689574839836924 0.089545719277810132 0 0
6004150000 0 0 0.98720318498507043 0.088511303853263182 0.98720318498507043 0.088511303853263182 0 0
6004200000 0 0 0.98750000000000004 0.087499999999999994 0.98750000000000004 0.087499999999999994 0 0
6004250000 0 0 0.98778667390419328 0.086511059845297861 0.98778667390419328 0.086511059845297861 0 0
6004300000 0 0 0.98806366047745353 0.085543766578249331 0.98806366047745353 0.085543766578249331 0 0
6004350000 0 0 0.98833138856476077 0.084597432905484243 0.98833138856476077 0.084597432905484243 0 0
6004400000 0 0 0.98859026369168357 0.083671399594320489 0.98859026369168357 0.083671399594320489 0 0
6004450000 0 0 0.98884066955982641 0.082765034097954118 0.98884066955982641 0.082765034097954118 0 0
6004500000 0 0 0.98908296943231444 0.081877729257641918 0.98908296943231444 0.081877729257641918 0 0
6004550000 0 0 0.98931750741839763 0.081008902077151335 0.98931750741839763 0.081008902077151335 0 0
6004600000 0 0 0.98954460966542745 0.080157992565055763 0.98954460966542745 0.080157992565055763 0 0
6004650000 0 0 0.98976458546571133 0.079324462640736948 0.98976458546571133 0.079324462640736948 0 0
6004700000 0 0 0.98997772828507791 0.07850779510022271 0.98997772828507791 0.07850779510022271 0 0
6004750000 0 0 0.99018431671938056 0.077707492638237535 0.99018431671938056 0.077707492638237535 0 0
6004800000 0 0 0.99038461538461542 0.076923076923076927 0.99038461538461542 0.076923076923076927 0 0
6004850000 0 0 0.99057887574583903 0.076154087721134717 0.99057887574583903 0.076154087721134717 0 0
6004900000 0 0 0.99076733688961838 0.075400082068116533 0.99076733688961838 0.075400082068116533 0 0
6004950000 0 0 0.99095022624434392 0.074660633484162894 0.99095022624434392 0.074660633484162894 0 0
6005000000 0 0 0.99112776025236593 0.07393533123028391 0.99112776025236593 0.07393533123028391 0 0
6005050000 0 0 0.99130014499758334 0.073223779603673281 0.99130014499758334 0.073223779603673281 0 0
6005100000 0 0 0.99146757679180886 0.07252559726962457 0.99146757679180886 0.07252559726962457 0 0
6005150000 0 0 0.99163024272296107 0.071840416627917791 0.99163024272296107 0.071840416627917791 0 0
6005200000 0 0 0.99178832116788318 0.071167883211678842 0.99178832116788318 0.071167883211678842 0 0
6005250000 0 0 0.99194198227236097 0.070507655116841261 0.99194198227236097 0.070507655116841261 0 0
6005300000 0 0 0.99209138840070299 0.069859402460456937 0.99209138840070299 0.069859402460456937 0 0
6005350000 0 0 0.99223669455706032 0.069222806866212377 0.99223669455706032 0.069222806866212377 0 0
6005400000 0 0 0.99237804878048785 0.068597560975609762 0.99237804878048785 0.068597560975609762 0 0
6005450000 0 0 0.99251559251559252 0.067983367983367987 0.99251559251559252 0.067983367983367987 0 0
6005500000 0 0 0.99264946096047046 0.067379941195687687 0.99264946096047046 0.067379941195687687 0 0
6005550000 0 0 0.99277978339350181 0.066787003610108295 0.99277978339350181 0.066787003610108295 0 0
6005600000 0 0 0.99290668348045397 0.066204287515762919 0.99290668348045397 0.066204287515762919 0 0
6005650000 0 0 0.99303027956323087 0.065631534112909479 0.99303027956323087 0.065631534112909479 0 0
6005700000 0 0 0.99315068493150682 0.065068493150684928 0.99315068493150682 0.065068493150684928 0 0
6005750000 0 0 0.99326800807839033 0.064514922582092904 0.99326800807839033 0.064514922582092904 0 0
6005800000 0 0 0.99338235294117649 0.063970588235294112 0.99338235294117649 0.063970588235294112 0 0
6005850000 0 0 0.99349381912817181 0.063435263500325315 0.99349381912817181 0.063435263500325315 0 0
6005900000 0 0 0.99360250213249934 0.062908729030423646 0.99360250213249934 0.062908729030423646 0 0
6005950000 0 0 0.99370849353372948 0.06239077245718281 0.99370849353372948 0.06239077245718281 0 0
6006000000 0 0 0.99381188118811881 0.061881188118811881 0.99381188118811881 0.061881188118811881 0 0
6006050000 0 0 0.99391274940818397 0.061379776800811622 0.99391274940818397 0.061379776800811622 0 0
6006100000 0 0 0.99401117913228643 0.060886345488421617 0.99401117913228643 0.060886345488421617 0 0
6006150000 0 0 0.99410724808485562 0.060400707130229818 0.99410724808485562 0.060400707130229818 0 0
6006200000 0 0 0.99420103092783507 0.059922680412371129 0.99420103092783507 0.059922680412371129 0 0
6006250000 0 0 0.9942925994038937 0.059452089542773798 0.9942925994038937 0.059452089542773798 0 0
6006300000 0 0 0.9943820224719101 0.058988764044943826 0.9943820224719101 0.058988764044943826 0 0
6006350000 0 0 0.99446936643519945 0.058532538560806244 0.99446936643519945 0.058532538560806244 0 0
6006400000 0 0 0.99455469506292349 0.058083252662149081 0.99455469506292349 0.058083252662149081 0 0
6006450000 0 0 0.99463806970509383 0.057640750670241291 0.99463806970509383 0.057640750670241291 0 0
6006500000 0 0 0.99471954940154894 0.057204881483219901 0.99471954940154894 0.057204881483219901 0 0
6006550000 0 0 0.99479919098526437 0.056775498410863913 0.99479919098526437 0.056775498410863913 0 0
6006600000 0 0 0.99487704918032782 0.056352459016393436 0.99487704918032782 0.056352459016393436 0 0
6006650000 0 0 0.99495317669489147 0.055935624964952614 0.99495317669489147 0.055935624964952614 0 0
6006700000 0 0 0.99502762430939229 0.055524861878453041 0.99502762430939229 0.055524861878453041 0 0
6006750000 0 0 0.99510044096031358 0.05512003919647232 0.99510044096031358 0.05512003919647232 0 0
6006800000 0 0 0.99517167381974247 0.05472103004291845 0.99517167381974247 0.05472103004291845 0 0
6006850000 0 0 0.99524136837096178 0.054327711098186432 0.99524136837096178 0.054327711098186432 0 0
6006900000 0 0 0.99530956848030017 0.053939962476547837 0.99530956848030017 0.053939962476547837 0 0
6006950000 0 0 0.99537631646545077 0.053557667608528127 0.99537631646545077 0.053557667608528127 0 0
6007000000 0 0 0.99544165316045385 0.053180713128038903 0.99544165316045385 0.053180713128038903 0 0
6007050000 0 0 0.99550561797752812 0.05280898876404494 0.99550561797752812 0.05280898876404494 0 0
6007100000 0 0 0.99556824896592477 0.052442387236557017 0.99556824896592477 0.052442387236557017 0 0
6007150000 0 0 0.99562958286796488 0.0520808041567523 0.99562958286796488 0.0520808041567523 0 0
6007200000 0 0 0.99568965517241381 0.051724137931034482 0.99568965517241381 0.051724137931034482 0 0
6007250000 0 0 0.99574850016533611 0.051372289668855403 0.99574850016533611 0.051372289668855403 0 0
6007300000 0 0 0.99580615097856473 0.051025163094128613 0.99580615097856473 0.051025163094128613 0 0
6007350000 0 0 0.99586263963591226 0.050682664460074474 0.99586263963591226 0.050682664460074474 0 0
6007400000 0 0 0.99591799709724238 0.050344702467343974 0.99591799709724238 0.050344702467343974 0 0
6007450000 0 0 0.99597225330051464 0.050011188185276348 0.99597225330051464 0.050011188185276348 0 0
6007500000 0 0 0.99602543720190784 0.049682034976152624 0.99602543720190784 0.049682034976152624 0 0
6007550000 0 0 0.99607757681412068 0.04935715842231423 0.99607757681412068 0.04935715842231423 0 0
6007600000 0 0 0.99612869924294567 0.049036476256022025 0.99612869924294567 0.049036476256022025 0 0
6007650000 0 0 0.99617883072220104 0.048719908291937335 0.99617883072220104 0.048719908291937335 0 0
6007700000 0 0 0.99622799664710815 0.048407376362112314 0.99622799664710815 0.048407376362112314 0 0
6007750000 0 0 0.99627622160618978 0.048098804253382428 0.99627622160618978 0.048098804253382428 0 0
6007800000 0 0 0.99632352941176472 0.047794117647058827 0.99632352941176472 0.047794117647058827 0 0
6007850000 0 0 0.99636994312910898 0.047493244060823614 0.99636994312910898 0.047493244060823614 0 0
6007900000 0 0 0.99641548510434919 0.04719611279273539 0.99641548510434919 0.04719611279273539 0 0
6007950000 0 0 0.99646017699115041 0.04690265486725663 0.99646017699115041 0.04690265486725663 0 0
6008000000 0 0 0.99650403977625857 0.046612802983219397 0.99650403977625857 0.046612802983219397 0 0
6008050000 0 0 0.99654709380395168 0.046326491463648568 0.99654709380395168 0.046326491463648568 0 0
6008100000 0 0 0.99658935879945432 0.04604365620736698 0.99658935879945432 0.04604365620736698 0 0
6008150000 0 0 0.99663085389136374 0.045764234642308992 0.99663085389136374 0.045764234642308992 0 0
6008200000 0 0 0.99667159763313606 0.045488165680473383 0.99667159763313606 0.045488165680473383 0 0
6008250000 0 0 0.99671160802367642 0.0452153896744492 0.99671160802367642 0.0452153896744492 0 0
6008300000 0 0 0.99675090252707577 0.044945848375451264 0.99675090252707577 0.044945848375451264 0 0
6008350000 0 0 0.99678949809153494 0.044679484892804912 0.99678949809153494 0.044679484892804912 0 0
6008400000 0 0 0.99682741116751272 0.044416243654822336 0.99682741116751272 0.044416243654822336 0 0
6008450000 0 0 0.99686465772513499 0.044156070371015502 0.99686465772513499 0.044156070371015502 0 0
6008500000 0 0 0.99690125327089929 0.043898911995592899 0.99690125327089929 0.043898911995592899 0 0
6008550000 0 0 0.99693721286370596 0.043644716692189889 0.99693721286370596 0.043644716692189889 0 0
6008600000 0 0 0.99697255113024763 0.043393433799784713 0.99697255113024763 0.043393433799784713 0 0
6008650000 0 0 0.99700728227978586 0.043145013799753933 0.99700728227978586 0.043145013799753933 0 0
6008700000 0 0 0.99704142011834318 0.042899408284023666 0.99704142011834318 0.042899408284023666 0 0
6008750000 0 0 0.99707497806233547 0.042656569924274426 0.99707497806233547 0.042656569924274426 0 0
6008800000 0 0 0.99710796915167099 0.042416452442159386 0.99710796915167099 0.042416452442159386 0 0
6008850000 0 0 0.99714040606233911 0.04217901058049757 0.99714040606233911 0.04217901058049757 0 0
6008900000 0 0 0.99717230111851196 0.041944200075405308 0.99717230111851196 0.041944200075405308 0 0
6008950000 0 0 0.997203666304179 0.041711977629330439 0.997203666304179 0.041711977629330439 0 0
6009000000 0 0 0.99723451327433632 0.041482300884955754 0.99723451327433632 0.041482300884955754 0 0
6009050000 0 0 0.99726485336574988 0.041255128399939223 0.99726485336574988 0.041255128399939223 0 0
6009100000 0 0 0.99729469760731038 0.041030419622460026 0.99729469760731038 0.041030419622460026 0 0
6009150000 0 0 0.99732405672999735 0.040808134867540813 0.99732405672999735 0.040808134867540813 0 0
6009200000 0 0 0.99735294117647055 0.040588235294117647 0.99735294117647055 0.040588235294117647 0 0
6009250000 0 0 0.99738136111030284 0.040370682882830466 0.99738136111030284 0.040370682882830466 0 0
6009300000 0 0 0.99740932642487046 0.040155440414507769 0.99740932642487046 0.040155440414507769 0 0
6009350000 0 0 0.99743684675191524 0.039942471449320761 0.99743684675191524 0.039942471449320761 0 0
6009400000 0 0 0.99746393146979262 0.039731740306582504 0.99746393146979262 0.039731740306582504 0 0
6009450000 0 0 0.9974905897114178 0.039523212045169391 0.9974905897114178 0.039523212045169391 0 0
6009500000 0 0 0.99751683037192362 0.039316852444542541 0.99751683037192362 0.039316852444542541 0 0
6009550000 0 0 0.99754266211604092 0.039112627986348125 0.99754266211604092 0.039112627986348125 0 0
6009600000 0 0 0.99756809338521402 0.038910505836575876 0.99756809338521402 0.038910505836575876 0 0
6009650000 0 0 0.99759313240446068 0.038710453828256629 0.99759313240446068 0.038710453828256629 0 0
6009700000 0 0 0.99761778718898886 0.038512440444679719 0.99761778718898886 0.038512440444679719 0 0
6009750000 0 0 0.99764206555057766 0.038316434803112476 0.99764206555057766 0.038316434803112476 0 0
6009800000 0 0 0.99766597510373445 0.038122406639004153 0.99766597510373445 0.038122406639004153 0 0
6009850000 0 0 0.99768952327163507 0.037930326290657963 0.99768952327163507 0.037930326290657963 0 0
6009900000 0 0 0.99771271729185729 0.037740164684354982 0.99771271729185729 0.037740164684354982 0 0
6009950000 0 0 0.99773556422191467 0.037551893319914459 0.99773556422191467 0.037551893319914459 0 0
6010000000 0 0 0.99775807094459945 0.03736548425667597 0.99775807094459945 0.03736548425667597 0 0
6010050000 0 0 0.99778024417314093 0.037180910099889011 0.99778024417314093 0.037180910099889011 0 0
6010100000 0 0 0.99780209045618828 0.036998143987496346 0.99780209045618828 0.036998143987496346 0 0
6010150000 0 0 0.99782361618262283 0.036817159577297892 0.99782361618262283 0.036817159577297892 0 0
6010200000 0 0 0.99784482758620685 0.036637931034482756 0.99784482758620685 0.036637931034482756 0 0
6010250000 0 0 0.99786573075007712 0.036460433019516708 0.99786573075007712 0.036460433019516708 0 0
6010300000 0 0 0.99788633161108498 0.03628464067637388 0.99788633161108498 0.03628464067637388 0 0
6010350000 0 0 0.99790663596399409 0.03611052962110111 0.99790663596399409 0.03611052962110111 0 0
6010400000 0 0 0.99792664946553633 0.035938075930704021 0.99792664946553633 0.035938075930704021 0 0
6010450000 0 0 0.99794637763833427 0.035767256132344549 0.99794637763833427 0.035767256132344549 0 0
6010500000 0 0 0.99796582587469485 0.03559804719283971 0.99796582587469485 0.03559804719283971 0 0
6010550000 0 0 0.99798499944027763 0.035430426508451809 0.99798499944027763 0.035430426508451809 0 0
6010600000 0 0 0.99800390347764367 0.035264371894960955 0.99800390347764367 0.035264371894960955 0 0
6010650000 0 0 0.99802254300968951 0.035099861578010677 0.99802254300968951 0.035099861578010677 0 0
6010700000 0 0 0.99804092294296909 0.034936874183717895 0.99804092294296909 0.034936874183717895 0 0
6010750000 0 0 0.99805904807090939 0.034775388729539135 0.99805904807090939 0.034775388729539135 0 0
6010800000 0 0 0.99807692307692308 0.03461538461538461 0.99807692307692308 0.03461538461538461 0 0
6010850000 0 0 0.99809455253742085 0.034456841614972589 0.99809455253742085 0.034456841614972589 0 0
6010900000 0 0 0.99811194092472932 0.034299739867416294 0.99811194092472932 0.034299739867416294 0 0
6010950000 0 0 0.99812909260991578 0.034144059869036486 0.99812909260991578 0.034144059869036486 0 0
6011000000 0 0 0.9981460118655241 0.033989782465392221 0.9981460118655241 0.033989782465392221 0 0
6011050000 0 0 0.99816270286822495 0.033836888843523524 0.99816270286822495 0.033836888843523524 0 0
6011100000 0 0 0.99817916970138387 0.033685360524399126 0.99817916970138387 0.033685360524399126 0 0
6011150000 0 0 0.99819541635754816 0.033535179355563133 0.99819541635754816 0.033535179355563133 0 0
6011200000 0 0 0.99821144674085849 0.033386327503974564 0.99821144674085849 0.033386327503974564 0 0
6011250000 0 0 0.99822726466938483 0.033238787449033858 0.99822726466938483 0.033238787449033858 0 0
6011300000 0 0 0.99824287387739163 0.033092541975790701 0.99824287387739163 0.033092541975790701 0 0
6011350000 0 0 0.99825827801753331 0.032947574168327748 0.99825827801753331 0.032947574168327748 0 0
6011400000 0 0 0.99827348066298338 0.032803867403314917 0.99827348066298338 0.032803867403314917 0 0
6011450000 0 0 0.99828848530949887 0.032661405343729202 0.99828848530949887 0.032661405343729202 0 0
6011500000 0 0 0.99830329537742257 0.032520171932735084 0.99830329537742257 0.032520171932735084 0 0
6011550000 0 0 0.99831791421362492 0.032380151387720775 0.99831791421362492 0.032380151387720775 0 0
6011600000 0 0 0.99833234509338864 0.032241328194485622 0.99833234509338864 0.032241328194485622 0 0
6011650000 0 0 0.99834659122223646 0.032103687101574407 0.99834659122223646 0.032103687101574407 0 0
6011700000 0 0 0.99836065573770494 0.031967213114754096 0.99836065573770494 0.031967213114754096 0 0
6011750000 0 0 0.99837454171106577 0.031831891491628891 0.99837454171106577 0.031831891491628891 0 0
6011800000 0 0 0.99838825214899718 0.031697707736389684 0.99838825214899718 0.031697707736389684 0 0
6011850000 0 0 0.99840178999520535 0.031564647594693941 0.99840178999520535 0.031564647594693941 0 0
6011900000 0 0 0.99841515813199977 0.031432697048672256 0.99841515813199977 0.031432697048672256 0 0
6011950000 0 0 0.9984283593818214 0.031301842312057973 0.9984283593818214 0.031301842312057973 0 0
6012000000 0 0 0.99844139650872821 0.031172069825436407 0.99844139650872821 0.031172069825436407 0 0
6012050000 0 0 0.99845427221983685 0.031043366251610131 0.99845427221983685 0.031043366251610131 0 0
6012100000 0 0 0.9984669891667235 0.030915718471077193 0.9984669891667235 0.030915718471077193 0 0
6012150000 0 0 0.99847954994678423 0.030789113577618973 0.99847954994678423 0.030789113577618973 0 0
6012200000 0 0 0.99849195710455763 0.030663538873994638 0.99849195710455763 0.030663538873994638 0 0
6012250000 0 0 0.99850421313300874 0.030538981867739203 0.99850421313300874 0.030538981867739203 0 0
6012300000 0 0 0.99851632047477745 0.030415430267062317 0.99851632047477745 0.030415430267062317 0 0
6012350000 0 0 0.99852828152339212 0.030292871976844962 0.99852828152339212 0.030292871976844962 0 0
6012400000 0 0 0.99854009862444848 0.030171295094731376 0.99854009862444848 0.030171295094731376 0 0
6012450000 0 0 0.99855177407675599 0.030050687907313543 0.99855177407675599 0.030050687907313543 0 0
6012500000 0 0 0.99856331013345256 0.029931038886405727 0.99856331013345256 0.029931038886405727 0 0
6012550000 0 0 0.99857470900308809 0.029812336685406601 0.99857470900308809 0.029812336685406601 0 0
6012600000 0 0 0.99858597285067874 0.029694570135746605 0.99858597285067874 0.029694570135746605 0 0
6012650000 0 0 0.99859710379873112 0.029577728243418078 0.99859710379873112 0.029577728243418078 0 0
6012700000 0 0 0.99860810392824007 0.029461800185586143 0.99860810392824007 0.029461800185586143 0 0
6012750000 0 0 0.99861897527965748 0.029346775307278 0.99861897527965748 0.029346775307278 0 0
6012800000 0 0 0.99862971985383675 0.029232643118148601 0.99862971985383675 0.029232643118148601 0 0
6012850000 0 0 0.99864033961294996 0.029119393289320623 0.99864033961294996 0.029119393289320623 0 0
6012900000 0 0 0.99865083648138153 0.029007015650296817 0.99865083648138153 0.029007015650296817 0 0
6012950000 0 0 0.99866121234659722 0.028895500185942731 0.99866121234659722 0.028895500185942731 0 0
6013000000 0 0 0.9986714690599906 0.028784837033538027 0.9986714690599906 0.028784837033538027 0 0
6013050000 0 0 0.99868160843770604 0.028675016479894531 0.99868160843770604 0.028675016479894531 0 0
6013100000 0 0 0.99869163226144098 0.028566028958539283 0.99869163226144098 0.028566028958539283 0 0
6013150000 0 0 0.99870154227922614 0.028457865046960885 0.99870154227922614 0.028457865046960885 0 0
6013200000 0 0 0.99871134020618557 0.028350515463917526 0.99871134020618557 0.028350515463917526 0 0
6013250000 0 0 0.99872102772527671 0.028243971066804988 0.99872102772527671 0.028243971066804988 0 0
6013300000 0 0 0.99873060648801126 0.028138222849083214 0.99873060648801126 0.028138222849083214 0 0
6013350000 0 0 0.99874007811515686 0.02803326193775986 0.99874007811515686 0.02803326193775986 0 0
6013400000 0 0 0.99874944419742107 0.027929079590929305 0.99874944419742107 0.027929079590929305 0 0
6013450000 0 0 0.99875870629611752 0.027825667195365836 0.99875870629611752 0.027825667195365836 0 0
6013500000 0 0 0.99876786594381473 0.027723016264169544 0.99876786594381473 0.027723016264169544 0 0
6013550000 0 0 0.99877692464496837 0.027621118434463549 0.99877692464496837 0.027621118434463549 0 0
6013600000 0 0 0.99878588387653788 0.027519965465141377 0.99878588387653788 0.027519965465141377 0 0
6013650000 0 0 0.99879474508858623 0.027419549234663131 0.99879474508858623 0.027419549234663131 0 0
6013700000 0 0 0.99880350970486576 0.027319861738899234 0.99880350970486576 0.027319861738899234 0 0
6013750000 0 0 0.99881217912338816 0.027220895089020578 0.99881217912338816 0.027220895089020578 0 0
6013800000 0 0 0.99882075471698117 0.02712264150943396 0.99882075471698117 0.02712264150943396 0 0
6013850000 0 0 0.99882923783382982 0.027025093335761582 0.99882923783382982 0.027025093335761582 0 0
6013900000 0 0 0.99883762979800594 0.026928243012863562 0.99883762979800594 0.026928243012863562 0 0
6013950000 0 0 0.99884593190998272 0.026832083092902484 0.99884593190998272 0.026832083092902484 0 0
6014000000 0 0 0.99885414544713791 0.026736606233448767 0.99885414544713791 0.026736606233448767 0 0
6014050000 0 0 0.99886227166424368 0.026641805195626065 0.99886227166424368 0.026641805195626065 0 0
6014100000 0 0 0.99887031179394492 0.026547672842295526 0.99887031179394492 0.026547672842295526 0 0
6014150000 0 0 0.99887826704722493 0.026454202136278089 0.99887826704722493 0.026454202136278089 0 0
6014200000 0 0 0.99888613861386144 0.026361386138613857 0.99888613861386144 0.026361386138613857 0 0
6014250000 0 0 0.99889392766286911 0.02626921800685765 0.99889392766286911 0.02626921800685765 0 0
6014300000 0 0 0.99890163534293386 0.026177690993409809 0.99890163534293386 0.026177690993409809 0 0
6014350000 0 0 0.99890926278283421 0.026086798443881565 0.99890926278283421 0.026086798443881565 0 0
6014400000 0 0 0.99891681109185437 0.02599653379549393 0.99891681109185437 0.02599653379549393 0 0
6014450000 0 0 0.99892428136018641 0.025906890575509472 0.99892428136018641 0.025906890575509472 0 0
6014500000 0 0 0.99893167465932287 0.025817862399696124 0.99893167465932287 0.025817862399696124 0 0
6014550000 0 0 0.9989389920424403 0.025729442970822278 0.9989389920424403 0.025729442970822278 0 0
6014600000 0 0 0.99894623454477327 0.025641626077182469 0.99894623454477327 0.025641626077182469 0 0
6014650000 0 0 0.99895340318398007 0.025554405591152768 0.99895340318398007 0.025554405591152768 0 0
6014700000 0 0 0.99896049896049899 0.025467775467775466 0.99896049896049899 0.025467775467775466 0 0
6014750000 0 0 0.99896752285789669 0.025381729743372071 0.99896752285789669 0.025381729743372071 0 0
6014800000 0 0 0.99897447584320875 0.025296262534184141 0.99897447584320875 0.025296262534184141 0 0
6014850000 0 0 0.99898135886727102 0.025211368035041253 0.99898135886727102 0.025211368035041253 0 0
6014900000 0 0 0.99898817286504471 0.025127040518055498 0.99898817286504471 0.025127040518055498 0 0
6014950000 0 0 0.99899491875593283 0.025043274331341785 0.99899491875593283 0.025043274331341785 0 0
6015000000 0 0 0.99900159744408945 0.024960063897763576 0.99900159744408945 0.024960063897763576 0 0
6015050000 0 0 0.99900820981872285 0.024877403713703235 0.99900820981872285 0.024877403713703235 0 0
6015100000 0 0 0.99901475675438978 0.024795288347856551 0.99901475675438978 0.024795288347856551 0 0
6015150000 0 0 0.99902123911128515 0.024713712440050897 0.99902123911128515 0.024713712440050897 0 0
6015200000 0 0 0.99902765773552293 0.024632670700086429 0.99902765773552293 0.024632670700086429 0 0
6015250000 0 0 0.99903401345941245 0.024552157906599835 0.99903401345941245 0.024552157906599835 0 0
6015300000 0 0 0.99904030710172742 0.024472168905950095 0.99904030710172742 0.024472168905950095 0 0
6015350000 0 0 0.99904653946796906 0.024392698611125828 0.99904653946796906 0.024392698611125828 0 0
6015400000 0 0 0.99905271135062312 0.024313742000673627 0.99905271135062312 0.024313742000673627 0 0
6015450000 0 0 0.99905882352941178 0.02423529411764706 0.99905882352941178 0.02423529411764706 0 0
6015500000 0 0 0.99906487677153899 0.024157350068575705 0.99906487677153899 0.024157350068575705 0 0
6015550000 0 0 0.999070871831931 0.02407990502245393 0.999070871831931 0.02407990502245393 0 0
6015600000 0 0 0.99907680945347122 0.024002954209748892 0.99907680945347122 0.024002954209748892 0 0
6015650000 0 0 0.99908269036722963 0.023926492921427334 0.99908269036722963 0.023926492921427334 0 0
6015700000 0 0 0.99908851529268783 0.02385051650800081 0.99908851529268783 0.02385051650800081 0 0
6015750000 0 0 0.99909428493795849 0.023775020378588897 0.99909428493795849 0.023775020378588897 0 0
6015800000 0 0 0.99909999999999999 0.023700000000000002 0.99909999999999999 0.023700000000000002 0 0
6015850000 0 0 0.99910566116482669 0.023625450895829396 0.99910566116482669 0.023625450895829396 0 0
6015900000 0 0 0.99911126910771419 0.023551368645574122 0.99911126910771419 0.023551368645574122 0 0
6015950000 0 0 0.99911682449340067 0.023477748883764291 0.99911682449340067 0.023477748883764291 0 0
6016000000 0 0 0.99912232797628331 0.023404587299110623 0.99912232797628331 0.023404587299110623 0 0
6016050000 0 0 0.99912778020061055 0.023331879633667688 0.99912778020061055 0.023331879633667688 0 0
6016100000 0 0 0.99913318180067034 0.023259621682012559 0.99913318180067034 0.023259621682012559 0 0
6016150000 0 0 0.99913853340097436 0.023187809290438677 0.99913853340097436 0.023187809290438677 0 0
6016200000 0 0 0.99914383561643838 0.023116438356164386 0.99914383561643838 0.023116438356164386 0 0
6016250000 0 0 0.99914908905255795 0.023045504826555985 0.99914908905255795 0.023045504826555985 0 0
6016300000 0 0 0.99915429430558167 0.022975004698364967 0.99915429430558167 0.022975004698364967 0 0
6016350000 0 0 0.99915945196267963 0.022904934016979069 0.99915945196267963 0.022904934016979069 0 0
6016400000 0 0 0.99916456260210906 0.022835288875686918 0.99916456260210906 0.022835288875686918 0 0
6016450000 0 0 0.99916962679337551 0.02276606541495594 0.99916962679337551 0.02276606541495594 0 0
6016500000 0 0 0.99917464509739184 0.02269725982172334 0.99917464509739184 0.02269725982172334 0 0
6016550000 0 0 0.99917961806663325 0.022628868328699696 0.99917961806663325 0.022628868328699696 0 0
6016600000 0 0 0.99918454624528852 0.022560887213685127 0.99918454624528852 0.022560887213685127 0 0
6016650000 0 0 0.99918943016940909 0.022493312798897623 0.99918943016940909 0.022493312798897623 0 0
6016700000 0 0 0.99919427036705466 0.022426141450313342 0.99919427036705466 0.022426141450313342 0 0
6016750000 0 0 0.99919906735843511 0.022359369577018569 0.99919906735843511 0.022359369577018569 0 0
6016800000 0 0 0.99920382165605093 0.022292993630573247 0.99920382165605093 0.022292993630573247 0 0
6016850000 0 0 0.99920853376482899 0.022227010104385603 0.99920853376482899 0.022227010104385603 0 0
6016900000 0 0 0.9992132041822569 0.022161415533097875 0.9992132041822569 0.022161415533097875 0 0
6016950000 0 0 0.99921783339851389 0.022096206491982791 0.99921783339851389 0.022096206491982791 0 0
6017000000 0 0 0.99922242189659938 0.022031379596350566 0.99922242189659938 0.022031379596350566 0 0
6017050000 0 0 0.99922697015245865 0.021966931500966288 0.99922697015245865 0.021966931500966288 0 0
6017100000 0 0 0.99923147863510609 0.021902858899477406 0.99923147863510609 0.021902858899477406 0 0
6017150000 0 0 0.99923594780674574 0.021839158523851161 0.99923594780674574 0.021839158523851161 0 0
6017200000 0 0 0.99924037812288991 0.02177582714382174 0.99924037812288991 0.02177582714382174 0 0
6017250000 0 0 0.99924477003247492 0.021712861566346948 0.99924477003247492 0.021712861566346948 0 0
6017300000 0 0 0.99924912397797427 0.021650258635074256 0.99924912397797427 0.021650258635074256 0 0
6017350000 0 0 0.99925344039551067 0.021588015229815932 0.99925344039551067 0.021588015229815932 0 0
6017400000 0 0 0.99925771971496435 0.021526128266033253 0.99925771971496435 0.021526128266033253 0 0
6017450000 0 0 0.99926196236008036 0.02146459469432941 0.99926196236008036 0.02146459469432941 0 0
6017500000 0 0 0.9992661687485731 0.021403411499951074 0.9992661687485731 0.021403411499951074 0 0
6017550000 0 0 0.99927033929222908 0.02134257570229843 0.99927033929222908 0.02134257570229843 0 0
6017600000 0 0 0.99927447439700756 0.02128208435444344 0.99927447439700756 0.02128208435444344 0 0
6017650000 0 0 0.99927857446313917 0.021221934542656293 0.99927857446313917 0.021221934542656293 0 0
6017700000 0 0 0.99928263988522237 0.021162123385939743 0.99928263988522237 0.021162123385939743 0 0
6017750000 0 0 0.99928667105231872 0.021102648035571339 0.99928667105231872 0.021102648035571339 0 0
6017800000 0 0 0.99929066834804536 0.021043505674653212 0.99929066834804536 0.021043505674653212 0 0
6017850000 0 0 0.99929463215066661 0.020984693517669468 0.99929463215066661 0.020984693517669468 0 0
6017900000 0 0 0.99929856283318264 0.020926208810050816 0.99929856283318264 0.020926208810050816 0 0
6017950000 0 0 0.99930246076341789 0.020868048827746562 0.99930246076341789 0.020868048827746562 0 0
6018000000 0 0 0.99930632630410654 0.020810210876803549 0.99930632630410654 0.020810210876803549 0 0
6018050000 0 0 0.99931015981297666 0.020752692292952131 0.99931015981297666 0.020752692292952131 0 0
6018100000 0 0 0.99931396164283315 0.02069549044119889 0.99931396164283315 0.02069549044119889 0 0
6018150000 0 0 0.99931773214163877 0.020638602715426078 0.99931773214163877 0.020638602715426078 0 0
6018200000 0 0 0.99932147165259344 0.020582026537997591 0.99932147165259344 0.020582026537997591 0 0
6018250000 0 0 0.99932518051421249 0.020525759359371364 0.99932518051421249 0.020525759359371364 0 0
6018300000 0 0 0.9993288590604027 0.020469798657718124 0.9993288590604027 0.020469798657718124 0 0
6018350000 0 0 0.99933250762053805 0.020414141938546203 0.99933250762053805 0.020414141938546203 0 0
6018400000 0 0 0.99933612651953263 0.020358786734332585 0.99933612651953263 0.020358786734332585 0 0
6018450000 0 0 0.9993397160779135 0.020303730604159791 0.9993397160779135 0.020303730604159791 0 0
6018500000 0 0 0.99934327661189104 0.020248971133358631 0.99934327661189104 0.020248971133358631 0 0
6018550000 0 0 0.99934680843342893 0.02019450593315673 0.99934680843342893 0.02019450593315673 0 0
6018600000 0 0 0.99935031185031187 0.020140332640332641 0.99935031185031187 0.020140332640332641 0 0
6018650000 0 0 0.99935378716621315 0.020086448916875489 0.99935378716621315 0.020086448916875489 0 0
6018700000 0 0 0.99935723468075988 0.02003285244965005 0.99935723468075988 0.02003285244965005 0 0
6018750000 0 0 0.99936065468959789 0.019979540950067133 0.99936065468959789 0.019979540950067133 0 0
6018800000 0 0 0.99936404748445451 0.019926512153759186 0.99936404748445451 0.019926512153759186 0 0
6018850000 0 0 0.99936741335320123 0.019873763820261046 0.99936741335320123 0.019873763820261046 0 0
6018900000 0 0 0.99937075257991437 0.019821293732695699 0.99937075257991437 0.019821293732695699 0 0
6018950000 0 0 0.99937406544493512 0.019769099697464966 0.99937406544493512 0.019769099697464966 0 0
6019000000 0 0 0.99937735222492807 0.019717179543945095 0.99937735222492807 0.019717179543945095 0 0
6019050000 0 0 0.99938061319293903 0.019665531124187056 0.99938061319293903 0.019665531124187056 0 0
6019100000 0 0 0.99938384861845164 0.019614152312621522 0.99938384861845164 0.019614152312621522 0 0
6019150000 0 0 0.99938705876744327 0.019563041005768458 0.99938705876744327 0.019563041005768458 0 0
6019200000 0 0 0.99939024390243902 0.019512195121951219 0.99939024390243902 0.019512195121951219 0 0
6019250000 0 0 0.99939340428256573 0.019461612601015033 0.99939340428256573 0.019461612601015033 0 0
6019300000 0 0 0.99939654016360469 0.019411291404049888 0.99939654016360469 0.019411291404049888 0 0
6019350000 0 0 0.99939965179804291 0.019361229513117608 0.99939965179804291 0.019361229513117608 0 0
6019400000 0 0 0.99940273943512425 0.019311424930983222 0.99940273943512425 0.019311424930983222 0 0
6019450000 0 0 0.99940580332089923 0.019261875680850363 0.99940580332089923 0.019261875680850363 0 0
6019500000 0 0 0.99940884369827387 0.019212579806100735 0.99940884369827387 0.019212579806100735 0 0
6019550000 0 0 0.99941186080705768 0.019163535370037576 0.99941186080705768 0.019163535370037576 0 0
6019600000 0 0 0.99941485488401127 0.019114740455632998 0.99941485488401127 0.019114740455632998 0 0
6019650000 0 0 0.99941782616289221 0.019066193165279154 0.99941782616289221 0.019066193165279154 0 0
6019700000 0 0 0.99942077487450121 0.019017891620543181 0.99942077487450121 0.019017891620543181 0 0
6019750000 0 0 0.9994237012467263 0.018969833961925864 0.9994237012467263 0.018969833961925864 0 0
6019800000 0 0 0.99942660550458717 0.018922018348623851 0.99942660550458717 0.018922018348623851 0 0
6019850000 0 0 0.99942948787027819 0.018874442958295563 0.99942948787027819 0.018874442958295563 0 0
6019900000 0 0 0.99943234856321117 0.018827105986830489 0.99943234856321117 0.018827105986830489 0 0
6019950000 0 0 0.99943518780005647 0.018780005648121996 0.99943518780005647 0.018780005648121996 0 0
6020000000 0 0 0.9994380057947847 0.018733140173843539 0.9994380057947847 0.018733140173843539 0 0
6020050000 0 0 0.99944080275870639 0.018686507813228122 0.99944080275870639 0.018686507813228122 0 0
6020100000 0 0 0.99944357890051194 0.018640106832851101 0.99944357890051194 0.018640106832851101 0 0
6020150000 0 0 0.99944633442631015 0.018593935516416183 0.99944633442631015 0.018593935516416183 0 0
6020200000 0 0 0.99944906953966695 0.018547992164544565 0.99944906953966695 0.018547992164544565 0 0
6020250000 0 0 0.9994517844416424 0.018502275094567183 0.9994517844416424 0.018502275094567183 0 0
6020300000 0 0 0.99945447933082798 0.018456782640320038 0.99945447933082798 0.018456782640320038 0 0
6020350000 0 0 0.99945715440338256 0.018411513151942484 0.99945715440338256 0.018411513151942484 0 0
6020400000 0 0 0.99945980985306826 0.018366464995678476 0.99945980985306826 0.018366464995678476 0 0
6020450000 0 0 0.99946244587128563 0.018321636553680749 0.99946244587128563 0.018321636553680749 0 0
6020500000 0 0 0.99946506264710777 0.018277026223817789 0.99946506264710777 0.018277026223817789 0 0
6020550000 0 0 0.99946766036731438 0.01823263241948363 0.99946766036731438 0.01823263241948363 0 0
6020600000 0 0 0.99947023921642497 0.018188453569410432 0.99947023921642497 0.018188453569410432 0 0
6020650000 0 0 0.99947279937673172 0.018144488117483731 0.99947279937673172 0.018144488117483731 0 0
6020700000 0 0 0.99947534102833158 0.018100734522560339 0.99947534102833158 0.018100734522560339 0 0
6020750000 0 0 0.99947786434915786 0.018057191258288901 0.99947786434915786 0.018057191258288901 0 0
6020800000 0 0 0.99948036951501151 0.018013856812933028 0.99948036951501151 0.018013856812933028 0 0
6020850000 0 0 0.99948285669959147 0.017970729689196874 0.99948285669959147 0.017970729689196874 0 0
6020900000 0 0 0.99948532607452478 0.017927808404053343 0.99948532607452478 0.017927808404053343 0 0
6020950000 0 0 0.99948777780939646 0.0178850914885746 0.99948777780939646 0.0178850914885746 0 0
6021000000 0 0 0.99949021207177813 0.017842577487765087 0.99949021207177813 0.017842577487765087 0 0
6021050000 0 0 0.99949262902725711 0.017800264960396876 0.99949262902725711 0.017800264960396876 0 0
6021100000 0 0 0.99949502883946406 0.017758152478847322 0.99949502883946406 0.017758152478847322 0 0
6021150000 0 0 0.99949741167010098 0.017716238628939035 0.99949741167010098 0.017716238628939035 0 0
6021200000 0 0 0.99949977767896847 0.017674522009782121 0.99949977767896847 0.017674522009782121 0 0
6021250000 0 0 0.99950212702399199 0.017633001233618596 0.99950212702399199 0.017633001233618596 0 0
6021300000 0 0 0.99950445986124881 0.017591674925668981 0.99950445986124881 0.017591674925668981 0 0
6021350000 0 0 0.99950677634499352 0.017550541723981079 0.99950677634499352 0.017550541723981079 0 0
6021400000 0 0 0.99950907662768373 0.017509600279280856 0.99950907662768373 0.017509600279280856 0 0
6021450000 0 0 0.99951136086000492 0.017468849254825312 0.99951136086000492 0.017468849254825312 0 0
6021500000 0 0 0.99951362919089515 0.017428287326257539 0.99951362919089515 0.017428287326257539 0 0
6021550000 0 0 0.99951588176756945 0.017387913181463654 0.99951588176756945 0.017387913181463654 0 0
6021600000 0 0 0.99951811873554353 0.017347725520431765 0.99951811873554353 0.017347725520431765 0 0
6021650000 0 0 0.99952034023865743 0.017307723055112904 0.99952034023865743 0.017307723055112904 0 0
6021700000 0 0 0.9995225464190981 0.017267904509283821 0.9995225464190981 0.017267904509283821 0 0
6021750000 0 0 0.99952473741742309 0.017228268618411674 0.99952473741742309 0.017228268618411674 0 0
6021800000 0 0 0.99952691337258204 0.017188814129520606 0.99952691337258204 0.017188814129520606 0 0
6021850000 0 0 0.99952907442193883 0.017149539801060109 0.99952907442193883 0.017149539801060109 0 0
6021900000 0 0 0.99953122070129385 0.017110444402775173 0.99953122070129385 0.017110444402775173 0 0
6021950000 0 0 0.99953335234490448 0.017071526715578253 0.99953335234490448 0.017071526715578253 0 0
6022000000 0 0 0.99953546948550664 0.017032785531422911 0.99953546948550664 0.017032785531422911 0 0
6022050000 0 0 0.99953757225433526 0.016994219653179193 0.99953757225433526 0.016994219653179193 0 0
6022100000 0 0 0.99953966078114453 0.016955827894510708 0.99953966078114453 0.016955827894510708 0 0
6022150000 0 0 0.99954173519422795 0.01691760907975335 0.99954173519422795 0.01691760907975335 0 0
6022200000 0 0 0.99954379562043794 0.016879562043795621 0.99954379562043794 0.016879562043795621 0 0
6022250000 0 0 0.99954584218520559 0.016841685631960597 0.99954584218520559 0.016841685631960597 0 0
6022300000 0 0 0.99954787501255904 0.01680397869988948 0.99954787501255904 0.01680397869988948 0 0
6022350000 0 0 0.99954989422514295 0.016766440113426657 0.99954989422514295 0.016766440113426657 0 0
6022400000 0 0 0.99955189994423643 0.016729068748506333 0.99955189994423643 0.016729068748506333 0 0
6022450000 0 0 0.99955389228977176 0.016691863491040671 0.99955389228977176 0.016691863491040671 0 0
6022500000 0 0 0.99955587138035173 0.016654823236809384 0.99955587138035173 0.016654823236809384 0 0
6022550000 0 0 0.99955783733326786 0.016617946891350807 0.99955783733326786 0.016617946891350807 0 0
6022600000 0 0 0.99955979026451713 0.01658123336985444 0.99955979026451713 0.01658123336985444 0 0
6022650000 0 0 0.99956173028881978 0.016544681597054828 0.99956173028881978 0.016544681597054828 0 0
6022700000 0 0 0.99956365751963538 0.016508290507126926 0.99956365751963538 0.016508290507126926 0 0
6022750000 0 0 0.99956557206918029 0.016472059043582777 0.99956557206918029 0.016472059043582777 0 0
6022800000 0 0 0.99956747404844293 0.016435986159169552 0.99956747404844293 0.016435986159169552 0 0
6022850000 0 0 0.99956936356720083 0.016400070815768948 0.99956936356720083 0.016400070815768948 0 0
6022900000 0 0 0.99957124073403592 0.016364311984297882 0.99957124073403592 0.016364311984297882 0 0
6022950000 0 0 0.99957310565635005 0.01632870864461046 0.99957310565635005 0.01632870864461046 0 0
6023000000 0 0 0.9995749584403808 0.016293259785401241 0.9995749584403808 0.016293259785401241 0 0
6023050000 0 0 0.99957679919121623 0.016257964404109752 0.99957679919121623 0.016257964404109752 0 0
6023100000 0 0 0.99957862801280972 0.016222821506826225 0.99957862801280972 0.016222821506826225 0 0
6023150000 0 0 0.99958044500799481 0.016187830108198568 0.99958044500799481 0.016187830108198568 0 0
6023200000 0 0 0.99958225027849978 0.016152989231340516 0.99958225027849978 0.016152989231340516 0 0
6023250000 0 0 0.99958404392496147 0.016118297907740945 0.99958404392496147 0.016118297907740945 0 0
6023300000 0 0 0.99958582604693968 0.016083755177174412 0.99958582604693968 0.016083755177174412 0 0
6023350000 0 0 0.99958759674293074 0.016049360087612784 0.99958759674293074 0.016049360087612784 0 0
6023400000 0 0 0.99958935611038102 0.016015111695137974 0.99958935611038102 0.016015111695137974 0 0
6023450000 0 0 0.99959110424570097 0.015981009063855887 0.99959110424570097 0.015981009063855887 0 0
6023500000 0 0 0.99959284124427716 0.015947051265811332 0.99959284124427716 0.015947051265811332 0 0
6023550000 0 0 0.99959456720048656 0.015913237380904117 0.99959456720048656 0.015913237380904117 0 0
6023600000 0 0 0.99959628220770835 0.015879566496806143 0.99959628220770835 0.015879566496806143 0 0
6023650000 0 0 0.99959798635833708 0.015846037708879587 0.99959798635833708 0.015846037708879587 0 0
6023700000 0 0 0.99959967974379504 0.015812650120096076 0.99959967974379504 0.015812650120096076 0 0
6023750000 0 0 0.99960136245454423 0.015779402840956906 0.99960136245454423 0.015779402840956906 0 0
6023800000 0 0 0.9996030345800988 0.015746294989414253 0.9996030345800988 0.015746294989414253 0 0
6023850000 0 0 0.99960469620903669 0.015713325690793374 0.99960469620903669 0.015713325690793374 0 0
6023900000 0 0 0.99960634742901133 0.015680494077715764 0.99960634742901133 0.015680494077715764 0 0
6023950000 0 0 0.99960798832676356 0.015647799290023301 0.99960798832676356 0.015647799290023301 0 0
6024000000 0 0 0.99960961898813239 0.015615240474703312 0.99960961898813239 0.015615240474703312 0 0
6024050000 0 0 0.99961123949806696 0.015582816785814562 0.99961123949806696 0.015582816785814562 0 0
6024100000 0 0 0.99961284994063704 0.0155505273844142 0.99961284994063704 0.0155505273844142 0 0
6024150000 0 0 0.99961445039904384 0.01551837143848556 0.99961445039904384 0.01551837143848556 0 0
6024200000 0 0 0.99961604095563139 0.015486348122866894 0.99961604095563139 0.015486348122866894 0 0
6024250000 0 0 0.99961762169189661 0.015454456619180946 0.99961762169189661 0.015454456619180946 0 0
6024300000 0 0 0.99961919268849964 0.015422696115765425 0.99961919268849964 0.015422696115765425 0 0
6024350000 0 0 0.99962075402527462 0.015391065807604302 0.99962075402527462 0.015391065807604302 0 0
6024400000 0 0 0.99962230578123956 0.015359564896259989 0.99962230578123956 0.015359564896259989 0 0
6024450000 0 0 0.99962384803460602 0.015328192589806283 0.99962384803460602 0.015328192589806283 0 0
6024500000 0 0 0.99962538086278951 0.015296948102762191 0.99962538086278951 0.015296948102762191 0 0
6024550000 0 0 0.99962690434241885 0.015265830656026533 0.99962690434241885 0.015265830656026533 0 0
6024600000 0 0 0.99962841854934603 0.015234839476813318 0.99962841854934603 0.015234839476813318 0 0
6024650000 0 0 0.9996299235586551 0.015203973798587952 0.9996299235586551 0.015203973798587952 0 0
6024700000 0 0 0.99963141944467193 0.015173232861004178 0.99963141944467193 0.015173232861004178 0 0
6024750000 0 0 0.99963290628097357 0.015142615909841783 0.99963290628097357 0.015142615909841783 0 0
6024800000 0 0 0.99963438414039651 0.015112122196945077 0.99963438414039651 0.015112122196945077 0 0
6024850000 0 0 0.99963585309504643 0.015081750980162087 0.99963585309504643 0.015081750980162087 0 0
6024900000 0 0 0.99963731321630644 0.015051501523284494 0.99963731321630644 0.015051501523284494 0 0
6024950000 0 0 0.99963876457484602 0.015021373095988279 0.99963876457484602 0.015021373095988279 0 0
6025000000 0 0 0.99964020724062941 0.014991364973775106 0.99964020724062941 0.014991364973775106 0 0
6025050000 0 0 0.99964164128292421 0.014961476437914352 0.99964164128292421 0.014961476437914352 0 0
6025100000 0 0 0.99964306677030945 0.014931706775385882 0.99964306677030945 0.014931706775385882 0 0
6025150000 0 0 0.99964448377068416 0.014902055278823479 0.99964448377068416 0.014902055278823479 0 0
6025200000 0 0 0.99964589235127477 0.014872521246458922 0.99964589235127477 0.014872521246458922 0 0
6025250000 0 0 0.99964729257864393 0.014843103982066787 0.99964729257864393 0.014843103982066787 0 0
6025300000 0 0 0.99964868451869782 0.01481380279490983 0.99964868451869782 0.01481380279490983 0 0
6025350000 0 0 0.99965006823669389 0.014784616999685061 0.99965006823669389 0.014784616999685061 0 0
6025400000 0 0 0.99965144379724868 0.014755545916470441 0.99965144379724868 0.014755545916470441 0 0
6025450000 0 0 0.99965281126434569 0.014726588870672198 0.99965281126434569 0.014726588870672198 0 0
6025500000 0 0 0.99965417070134177 0.014697745192972751 0.99965417070134177 0.014697745192972751 0 0
6025550000 0 0 0.99965552217097586 0.014669014219279276 0.99965552217097586 0.014669014219279276 0 0
6025600000 0 0 0.99965686573537482 0.014640395290672849 0.99965686573537482 0.014640395290672849 0 0
6025650000 0 0 0.99965820145606177 0.01461188775335817 0.99965820145606177 0.01461188775335817 0 0
6025700000 0 0 0.9996595293939623 0.014583490958613905 0.9996595293939623 0.014583490958613905 0 0
6025750000 0 0 0.99966084960941182 0.014555204262743577 0.99966084960941182 0.014555204262743577 0 0
6025800000 0 0 0.99966216216216219 0.014527027027027026 0.99966216216216219 0.014527027027027026 0 0
6025850000 0 0 0.99966346711138865 0.014498958617672461 0.99966346711138865 0.014498958617672461 0 0
6025900000 0 0 0.99966476451569652 0.014470998405769033 0.99966476451569652 0.014470998405769033 0 0
6025950000 0 0 0.99966605443312739 0.014443145767239937 0.99966605443312739 0.014443145767239937 0 0
6026000000 0 0 0.99966733692116627 0.014415400082796145 0.99966733692116627 0.014415400082796145 0 0
6026050000 0 0 0.99966861203674728 0.014387760737890531 0.99966861203674728 0.014387760737890531 0 0
6026100000 0 0 0.99966987983626043 0.014360227122672653 0.99966987983626043 0.014360227122672653 0 0
6026150000 0 0 0.99967114037555771 0.014332798631943961 0.99967114037555771 0.014332798631943961 0 0
6026200000 0 0 0.9996723937099592 0.014305474665113572 0.9996723937099592 0.014305474665113572 0 0
6026250000 0 0 0.99967363989425928 0.0142782546261545 0.99967363989425928 0.0142782546261545 0 0
6026300000 0 0 0.99967487898273244 0.014251137923560437 0.99967487898273244 0.014251137923560437 0 0
6026350000 0 0 0.99967611102913922 0.01422412397030298 0.99967611102913922 0.01422412397030298 0 0
6026400000 0 0 0.99967733608673204 0.014197212183789366 0.99967733608673204 0.014197212183789366 0 0
6026450000 0 0 0.99967855420826113 0.014170401985820669 0.99967855420826113 0.014170401985820669 0 0
6026500000 0 0 0.99967976544598003 0.014143692802550491 0.99967976544598003 0.014143692802550491 0 0
6026550000 0 0 0.999680969851651 0.014117084064444089 0.999680969851651 0.014117084064444089 0 0
6026600000 0 0 0.99968216747655103 0.014090575206237993 0.99968216747655103 0.014090575206237993 0 0
6026650000 0 0 0.99968335837147693 0.014064165666900044 0.99968335837147693 0.014064165666900044 0 0
6026700000 0 0 0.99968454258675077 0.014037854889589906 0.99968454258675077 0.014037854889589906 0 0
6026750000 0 0 0.99968572017222534 0.014011642321620006 0.99968572017222534 0.014011642321620006 0 0
6026800000 0 0 0.99968689117728915 0.013985527414416922 0.99968689117728915 0.013985527414416922 0 0
6026850000 0 0 0.99968805565087193 0.013959509623483171 0.99968805565087193 0.013959509623483171 0 0
6026900000 0 0 0.99968921364144925 0.013933588408359461 0.99968921364144925 0.013933588408359461 0 0
6026950000 0 0 0.99969036519704813 0.013907763232587345 0.99969036519704813 0.013907763232587345 0 0
6027000000 0 0 0.99969151036525172 0.01388203356367226 0.99969151036525172 0.01388203356367226 0 0
6027050000 0 0 0.99969264919320411 0.01385639887304704 0.99969264919320411 0.01385639887304704 0 0
6027100000 0 0 0.99969378172761547 0.013830858636035767 0.99969378172761547 0.013830858636035767 0 0
6027150000 0 0 0.99969490801476646 0.013805412331818045 0.99969490801476646 0.013805412331818045 0 0
6027200000 0 0 0.99969602810051339 0.013780059443393677 0.99969602810051339 0.013780059443393677 0 0
6027250000 0 0 0.99969714203029247 0.013754799457547727 0.99969714203029247 0.013754799457547727 0 0
6027300000 0 0 0.99969824984912492 0.013729631864815933 0.99969824984912492 0.013729631864815933 0 0
6027350000 0 0 0.99969935160162082 0.01370455615945055 0.99969935160162082 0.01370455615945055 0 0
6027400000 0 0 0.99970044733198427 0.013679571839386517 0.99970044733198427 0.013679571839386517 0 0
6027450000 0 0 0.99970153708401732 0.013654678406208029 0.99970153708401732 0.013654678406208029 0 0
6027500000 0 0 0.99970262090112472 0.013629875365115448 0.99970262090112472 0.013629875365115448 0 0
6027550000 0 0 0.99970369882631815 0.013605162224892589 0.99970369882631815 0.013605162224892589 0 0
6027600000 0 0 0.9997047709022201 0.013580538497874349 0.9997047709022201 0.013580538497874349 0 0
6027650000 0 0 0.99970583717106876 0.013556003699914691 0.99970583717106876 0.013556003699914691 0 0
6027700000 0 0 0.99970689767472154 0.013531557350354979 0.99970689767472154 0.013531557350354979 0 0
6027750000 0 0 0.9997079524546596 0.013507198971992641 0.9997079524546596 0.013507198971992641 0 0
6027800000 0 0 0.99970900155199172 0.013482928091050181 0.99970900155199172 0.013482928091050181 0 0
6027850000 0 0 0.9997100450074583 0.013458744237144524 0.9997100450074583 0.013458744237144524 0 0
6027900000 0 0 0.99971108286143529 0.013434646943256674 0.99971108286143529 0.013434646943256674 0 0
6027950000 0 0 0.99971211515393843 0.013410635745701718 0.99971211515393843 0.013410635745701718 0 0
6028000000 0 0 0.99971314192462646 0.013386710184099138 0.99971314192462646 0.013386710184099138 0 0
6028050000 0 0 0.99971416321280548 0.013362869801343432 0.99971416321280548 0.013362869801343432 0 0
6028100000 0 0 0.99971517905743257 0.013339114143575069 0.99971517905743257 0.013339114143575069 0 0
6028150000 0 0 0.99971618949711938 0.013315442760151746 0.99971618949711938 0.013315442760151746 0 0
6028200000 0 0 0.99971719457013575 0.013291855203619911 0.99971719457013575 0.013291855203619911 0 0
6028250000 0 0 0.99971819431441378 0.013268351029686664 0.99971819431441378 0.013268351029686664 0 0
6028300000 0 0 0.99971918876755073 0.013244929797191888 0.99971918876755073 0.013244929797191888 0 0
6028350000 0 0 0.99972017796681312 0.0132215910680807 0.99972017796681312 0.0132215910680807 0 0
6028400000 0 0 0.99972116194913996 0.013198334407376194 0.99972116194913996 0.013198334407376194 0 0
6028450000 0 0 0.99972214075114618 0.013175159383152469 0.99972214075114618 0.013175159383152469 0 0
6028500000 0 0 0.9997231144091262 0.013152065566507918 0.9997231144091262 0.013152065566507918 0 0
6028550000 0 0 0.99972408295905701 0.01312905253153885 0.99972408295905701 0.01312905253153885 0 0
6028600000 0 0 0.99972504643660187 0.013106119855313325 0.99972504643660187 0.013106119855313325 0 0
6028650000 0 0 0.99972600487711316 0.013083267117845302 0.99972600487711316 0.013083267117845302 0 0
6028700000 0 0 0.99972695831563618 0.013060493902069049 0.99972695831563618 0.013060493902069049 0 0
6028750000 0 0 0.9997279067869117 0.013037799793813811 0.9997279067869117 0.013037799793813811 0 0
6028800000 0 0 0.99972885032537961 0.013015184381778741 0.99972885032537961 0.013015184381778741 0 0
6028850000 0 0 0.99972978896518183 0.012992647257508113 0.99972978896518183 0.012992647257508113 0 0
6028900000 0 0 0.99973072274016539 0.012970188015366757 0.99973072274016539 0.012970188015366757 0 0
6028950000 0 0 0.99973165168388567 0.012947806252515766 0.99973165168388567 0.012947806252515766 0 0
6029000000 0 0 0.99973257582960917 0.012925501568888467 0.99973257582960917 0.012925501568888467 0 0
6029050000 0 0 0.99973349521031674 0.012903273567166612 0.99973349521031674 0.012903273567166612 0 0
6029100000 0 0 0.9997344098587061 0.012881121852756826 0.9997344098587061 0.012881121852756826 0 0
6029150000 0 0 0.99973531980719521 0.012859046033767311 0.99973531980719521 0.012859046033767311 0 0
6029200000 0 0 0.99973622508792492 0.012837045720984762 0.99973622508792492 0.012837045720984762 0 0
6029250000 0 0 0.99973712573276197 0.012815120527851529 0.99973712573276197 0.012815120527851529 0 0
6029300000 0 0 0.99973802177330151 0.012793270070443032 0.99973802177330151 0.012793270070443032 0 0
6029350000 0 0 0.99973891324086994 0.012771493967445383 0.99973891324086994 0.012771493967445383 0 0
6029400000 0 0 0.99973980016652786 0.012749791840133223 0.99973980016652786 0.012749791840133223 0 0
6029450000 0 0 0.99974068258107274 0.012728163312347831 0.99974068258107274 0.012728163312347831 0 0
6029500000 0 0 0.99974156051504115 0.012706608010475415 0.99974156051504115 0.012706608010475415 0 0
6029550000 0 0 0.99974243399871221 0.012685125563425628 0.99974243399871221 0.012685125563425628 0 0
6029600000 0 0 0.99974330306210923 0.012663715602610322 0.99974330306210923 0.012663715602610322 0 0
6029650000 0 0 0.9997441677350033 0.012642377761922494 0.9997441677350033 0.012642377761922494 0 0
6029700000 0 0 0.99974502804691479 0.012621111677715451 0.99974502804691479 0.012621111677715451 0 0
6029750000 0 0 0.99974588402711695 0.012599916988782192 0.99974588402711695 0.012599916988782192 0 0
6029800000 0 0 0.99974673570463757 0.012578793336334984 0.99974673570463757 0.012578793336334984 0 0
6029850000 0 0 0.99974758310826162 0.012557740363985158 0.99974758310826162 0.012557740363985158 0 0
6029900000 0 0 0.99974842626653393 0.012536757717723088 0.99974842626653393 0.012536757717723088 0 0
6029950000 0 0 0.99974926520776164 0.012515845045898397 0.99974926520776164 0.012515845045898397 0 0
6030000000 0 0 0.99975009996001596 0.012495001999200318 0.99975009996001596 0.012495001999200318 0 0
